108
step=200 time=1.0000 Lattice="5.038789 0 0 0 5.038789 0 0 0 5.038789" Properties=species:S:1:pos:R:3 pbc="T T T"
Ar 5.035314215421223 5.0306598238663 0.03461038520247546
Ar 4.814672461545683 0.7202623531017706 0.8288457706511607
Ar 0.7847089915648089 0.2568218369732625 0.9603981284852149
Ar 0.7360286436190858 0.9279357432756826 4.822972949440512
Ar 0.12613083338896847 5.021169511109933 1.8278352770701045
Ar 0.1350185140508097 0.7719289701072028 2.7821063420714323
Ar 0.9205356262097927 4.9352595633351655 2.4871879651826148
Ar 0.7889396421365986 0.9940896730449316 1.7668971231982187
Ar 5.002777420139721 4.853390258881571 3.455636032240767
Ar 5.000175993839351 0.7587198107290098 4.180566479341793
Ar 0.7965221715458058 5.000440313538759 4.299940338631323
Ar 0.8613316894736333 0.8344455877048068 3.5036945786052796
Ar 4.982085251687863 1.5367671045818445 4.971565289511855
Ar 0.0077524297510034755 2.632630157270899 0.9325491900181628
Ar 0.7389318852851919 1.4868371920772425 0.8119507126470872
Ar 0.7075256703882639 2.338437582397437 0.043795743702651414
Ar 0.018091724979012045 1.7186341777034204 1.5675924671735373
Ar 4.949249048702338 2.7200966427483624 2.59214666730261
Ar 0.8192267836992742 1.8158035920750526 2.473516701751304
Ar 0.7559352874315106 2.6971925090153874 1.7944606542743151
Ar 5.032614934408529 1.716633406496369 3.4847038038145297
Ar 4.958887392460754 2.432919863581458 4.296918539249587
Ar 0.8636715413728581 1.8037616247468773 4.167334471952884
Ar 0.8575974551421123 2.5263726598153182 3.207724571035455
Ar 0.02750476418436482 3.293312005665179 5.037222636404322
Ar 4.986465757458218 4.295268847840828 0.7401595846304156
Ar 0.8781456841123323 3.3629556451780402 0.9398542074536396
Ar 0.744430265064814 4.0694595236781295 5.026944522755473
Ar 0.0575073019243739 3.4674464248608614 1.6537103677736074
Ar 4.9514230428641 4.0819462435894405 2.4891639918262403
Ar 0.8552209079630247 3.453962496242572 2.6196270101357024
Ar 0.8901572169881897 4.267589669816839 1.4706454361920742
Ar 5.013958812271966 3.444171290904716 3.355002882353105
Ar 4.966320334060459 4.1561151512949515 4.295163478187993
Ar 0.8361033843920798 3.2753183520888047 4.1455685452584285
Ar 0.950693672363501 4.2989643071381565 3.3232024413873305
Ar 1.6189845776088045 4.991561269834072 5.03241861085682
Ar 1.6754248121202318 0.8243585834406656 0.7364169346068694
Ar 2.577354393764539 0.024682743199451962 0.9741438887477623
Ar 2.7173311067418497 0.8396999572196069 0.22343180976256077
Ar 1.7646103389123131 0.15244380685269454 1.7586443720057572
Ar 1.6182985920458992 0.9027286053838003 2.4613153269366332
Ar 2.4700527911401173 0.08288875800692738 2.475431511081344
Ar 2.552251697875497 0.9061279468914066 1.6842699163894232
Ar 1.6893310373379802 0.0591987614363229 3.459316850913536
Ar 1.9363132046919402 0.8116533697889727 4.394966785999038
Ar 2.669577420211817 4.885298753313445 4.240612392133221
Ar 2.509367557403905 1.067015905067091 3.391788462185421
Ar 1.5394185454054965 1.5875948231266481 5.023747701821731
Ar 1.5850204150464176 2.4067661089844106 0.8512812868608144
Ar 2.408456842217382 1.6712485744339647 0.9278040262561342
Ar 2.5945242680036693 2.5417303416981922 0.07875321947506414
Ar 1.5233514275822178 1.7620555406534162 1.6996220352387343
Ar 1.7180142109722887 2.5370566051388552 2.579540127212009
Ar 2.720459695433065 1.5813252134114257 2.4495771919439027
Ar 2.541829250712626 2.6377590982987513 1.6732357896667964
Ar 1.5570845234410218 1.691222081387086 3.313433331032254
Ar 1.7560763343636525 2.5429324516023644 3.9337362753734157
Ar 2.6239178533359993 1.7439817040965782 4.256765538007524
Ar 2.6131868730876744 2.4256613850348647 3.336901948636118
Ar 1.705030540264182 3.158192773235411 4.950167184502698
Ar 1.667144888554623 4.101495096570733 0.549126879888577
Ar 2.5462704573426485 3.3553797784906463 0.8491829175648603
Ar 2.5868885351771005 4.134075351728997 0.007231157961629637
Ar 1.5682838703345952 3.385370048897887 1.6795042978559769
Ar 1.728408770819789 4.270591020701997 2.3342008292940113
Ar 2.4762517842445395 3.390472186481155 2.4559975659614364
Ar 2.4857972410731892 4.301223058215149 1.5485971669918568
Ar 1.7704298650970975 3.470737476959981 3.3261258902077127
Ar 1.7798419801846372 4.185611347493806 4.288306159366189
Ar 2.4873666243373203 3.3614825341896193 4.179172240092488
Ar 2.512271562183398 4.320794449289922 3.339972683546075
Ar 3.407268574321731 4.7624690618299566 0.12924763256881575
Ar 3.3806670229142184 0.7350889386150185 1.0046108626580361
Ar 4.168119471545166 4.908980000597019 0.8162993883813252
Ar 4.1733019132210085 0.7216106606426991 4.963759421618941
Ar 3.326486168164263 5.004950319885454 1.7154018457508127
Ar 3.3941270943676947 0.7387642395240785 2.4709697802198365
Ar 4.308942732009023 5.038595693613786 2.6149849884181284
Ar 4.3010667632088095 1.015381195450366 1.741064050637648
Ar 3.3217766170142227 0.09678853228778474 3.2955072124761453
Ar 3.309023835124363 0.7642537371612282 4.332959084237497
Ar 4.098777252315171 0.06818323421293172 4.086925779949209
Ar 4.197152900367818 0.8578728027462279 3.3847240578383717
Ar 3.3472261395559784 1.75088214014408 0.17435952218479986
Ar 3.3247133566551983 2.5742020855668515 0.9466339631887578
Ar 4.221313738133713 1.6594604448052097 0.7754483943061101
Ar 4.158949768104642 2.4658229111741474 0.10295951776544164
Ar 3.4026889146571317 1.7256565857635957 1.5466279655046604
Ar 3.4240767789914637 2.5621273570811245 2.3961374443093573
Ar 4.208409883110145 1.7671018818854725 2.5556487761549813
Ar 4.230020628151748 2.6863793007689134 1.6162659979391285
Ar 3.3349589779227267 1.597717483699121 3.3571144865442055
Ar 3.4242190983603997 2.3447913303603842 4.317348997038391
Ar 4.113594240709373 1.6245594923489857 4.222601037047737
Ar 4.054028623603331 2.4295988182794384 3.504284406099218
Ar 3.373341640849365 3.3070400192321587 4.794765809002791
Ar 3.408274399685339 3.9266188835492555 0.8579365794599291
Ar 4.240614882425896 3.2798447939560056 0.6862826491584681
Ar 4.183646349816244 4.073333168155159 4.914522898025678
Ar 3.307574514806768 3.4151585059712173 1.750673547969149
Ar 3.3448708692625893 4.3538294829279085 2.605498712635562
Ar 4.149175970774472 3.418547229700153 2.4690607859094804
Ar 4.254389745470125 4.226209427800899 1.681362373910925
Ar 3.256627497538268 3.3509115575932196 3.121240930016595
Ar 3.3957448366551826 4.155505841775364 3.9845840189774577
Ar 4.2378055244076 3.3998045657882017 4.063330787529252
Ar 4.282091361226425 4.253981000334892 3.2762722793912764
108
step=400 time=2.0000 Lattice="5.038789 0 0 0 5.038789 0 0 0 5.038789" Properties=species:S:1:pos:R:3 pbc="T T T"
Ar 4.97770765910848 4.841826276822762 0.07702527622420567
Ar 0.06522123963872029 0.7967794445530091 0.7038060187481509
Ar 0.8758318439997697 4.992120876850854 0.6063976748054499
Ar 1.1300442111979097 0.9539031155028193 5.03023925315624
Ar 0.05978870226464653 0.08497408849389895 1.5029956243635407
Ar 0.06234529432006502 0.7125955143599991 2.4490510038381355
Ar 0.8615396286197672 4.93725699909518 2.479085740072578
Ar 0.9580892892830399 0.9826241600244416 1.462368751756568
Ar 4.954133094141552 0.10101290645641052 3.4375345996156956
Ar 0.0702139475715712 0.8472437700551246 4.573825482530377
Ar 1.1202800231442251 0.015177180191577298 4.224637873397536
Ar 0.6729545922360172 0.7585834319941369 3.365318557571904
Ar 5.032298943425312 1.7460967371239902 0.028539748907820083
Ar 0.025607880565966076 2.517082172570471 0.8976633074078513
Ar 0.849499366849357 1.873414364162814 0.8330132299563225
Ar 0.9221783005175325 2.837391626908365 0.0860407658634004
Ar 0.00047346028523787 1.6664353441804856 1.739707934610522
Ar 4.811054443619185 2.500431172044105 2.461886856653211
Ar 0.8381158510652892 1.3974912261260237 2.4838686112603288
Ar 0.6869978824178385 2.382301057686666 1.958073998853781
Ar 4.868627495304162 1.6730364259432948 3.1481429951325923
Ar 0.1981248521778857 2.5643839567728812 4.306235954240522
Ar 0.7384630649244113 1.6146882315183635 4.049862418746999
Ar 0.74954238066204 2.5130733574538655 3.141306941879998
Ar 4.915267835833812 3.200302464238034 0.016701430825783237
Ar 0.021327690348462693 4.190297531825971 0.8799268440608169
Ar 0.7661868060066009 3.236708664729747 1.1363147885407947
Ar 0.6695066439979777 4.06668345609619 0.14594713273997673
Ar 4.792966200308781 3.4006186894989443 1.6447150628513976
Ar 4.889753953807949 4.369071443541579 2.489225760008887
Ar 0.70656285402392 3.413617568025728 2.407787281134957
Ar 0.5476176999021076 4.199607292750857 1.7932953014677058
Ar 4.980137134868294 3.445982491752566 3.371995270499984
Ar 0.14220547551505333 4.131281223438293 4.230431254873867
Ar 0.8893905535773182 3.492388367907331 4.20827453144387
Ar 0.8988403197957237 4.170217817187595 3.3261574545819284
Ar 1.8832153445164763 0.17088246883654362 0.06931242893175273
Ar 1.8115136776560858 0.8720405658353314 0.843078525799025
Ar 2.6958006838918163 0.053314189312338715 0.8002412440286373
Ar 2.5819102990283156 0.885206453994245 0.04645840684938367
Ar 1.4318855483412374 5.013416249407468 1.516090216987616
Ar 1.6137929496791312 0.8017504752200462 2.276628868435219
Ar 2.4009709294714248 0.051301845680107906 2.2542947515293505
Ar 2.8098926455261326 0.7196913194492711 1.6751703245550802
Ar 1.6290614688185967 0.15439616737629216 3.2663766362947246
Ar 1.758649446166502 1.0662864080713506 4.092050202254729
Ar 2.4751818784153294 4.851003945892466 4.211101462596953
Ar 2.5686039225302717 0.7610754089167197 3.5294205430113568
Ar 1.607166610857267 1.9828823805206734 5.009545720880316
Ar 1.6758409683135336 2.4633136052912343 0.9478392380231448
Ar 2.5653911810837373 1.6683694593087854 0.9202528032404597
Ar 2.5792223248912287 2.40769043171441 0.11558016695582408
Ar 1.9782768025546038 1.6919696055958278 1.6835342486388718
Ar 1.7510442880158628 2.3953071088473306 2.4247584146628443
Ar 2.659749728363339 1.586248823984178 2.6570209275565837
Ar 2.6617152763115954 2.53861198455536 1.8402577755090397
Ar 1.6028974083950713 1.7480196641685948 3.266352301068876
Ar 1.513638873022971 2.572403637524476 4.14336368217778
Ar 2.6542462486535623 1.6072046270622666 4.118470617892064
Ar 2.4502960247868177 2.443671966126113 3.433347205377982
Ar 1.7927035433563785 3.3248454477877454 0.13353222435365728
Ar 1.6198116368785775 4.087544834260369 0.919736605555521
Ar 2.6354266755098954 3.2690031437702896 0.8478272160347516
Ar 2.5416024376755817 4.113506731445077 0.2730437885366125
Ar 1.7678287899662957 3.258259602329939 1.6400241760255965
Ar 1.660611159650316 4.303322226255653 2.283564255260756
Ar 2.5681747134912905 3.416499534763906 2.4770223883661564
Ar 2.513604171210922 4.3513921624956104 1.4733518498651863
Ar 1.6957004627883725 3.3294897235897007 3.2920296384259786
Ar 1.697403651779949 4.0927914500424105 4.491182143522371
Ar 2.4640475230368812 3.3762309978328777 4.087407141302598
Ar 2.2868350636263632 4.300051344431641 3.2552157958873464
Ar 3.352338201056963 4.961530944474618 5.027560732368772
Ar 3.36720955755385 1.0724954756119423 0.7415496864294249
Ar 4.0225945373318535 0.11664378881150206 0.8652684620709936
Ar 4.079771483740235 0.756566999520323 0.0658385633772698
Ar 3.370801031869492 4.9400210875533785 1.6238647474393009
Ar 3.4079715918831988 0.7879532469639089 2.7502283681999193
Ar 4.1274421349474535 0.10020729343621831 2.5667800544576664
Ar 4.163655439820498 0.8616212696192272 1.6501712574454452
Ar 3.3814527048242073 4.934578802128242 3.5639771958422766
Ar 3.4655372414044354 0.7659966588156981 4.169034316799845
Ar 4.236127137900345 0.005184265280962386 4.334024728299462
Ar 4.218034432589532 0.8533178769617595 3.3746357771342352
Ar 3.380901732682165 1.6413801024581658 4.9370684547816115
Ar 3.379037677916286 2.499662438987744 0.8131824284323271
Ar 4.3702951751026315 1.6997181125435907 0.9231565930547204
Ar 4.188069601334234 2.5140220701232048 4.832395254572504
Ar 3.3527320468575903 1.6163552056050814 1.6479818015131455
Ar 3.438334012522364 2.521439931552058 2.7552973953260618
Ar 4.144458762407001 1.6514054969190795 2.3797502577014273
Ar 4.081667403917712 2.491660990617707 1.639036512566841
Ar 3.484990056797696 1.5822349956630117 3.470975051388867
Ar 3.3202900505762956 2.480423546800517 4.103340045591601
Ar 4.35898755085999 1.6785809895537502 4.141467269610053
Ar 4.2667244848500285 2.618315582751651 3.3161710762626493
Ar 3.3574889574427047 3.3848846080211055 0.009634930873613567
Ar 3.3688932916351164 4.189691554107468 0.8731160859733713
Ar 4.1521053296963 3.4004695781338974 0.8619683640735005
Ar 4.259215971642647 4.1225786130171285 4.881291653704248
Ar 3.3034505031964745 3.3858905714215046 1.5909156597060716
Ar 3.3317624186177817 4.397619969391834 2.602683725581177
Ar 4.0557099845866915 3.3671575707127417 2.590142241101269
Ar 4.257830424059562 4.323245225130704 1.651090149104224
Ar 3.2349560656865606 3.285059941434432 3.4347570113198
Ar 3.1647569893435907 4.1142078528266195 4.243968896857585
Ar 4.033968340780251 3.3989308299919108 4.173940951034974
Ar 4.26240970294473 4.179044503294882 3.3600669125095872
108
step=600 time=3.0000 Lattice="5.038789 0 0 0 5.038789 0 0 0 5.038789" Properties=species:S:1:pos:R:3 pbc="T T T"
Ar 4.9682535896299465 4.872856936536722 0.12867147122315112
Ar 4.7495997071731315 0.8961722557394309 0.8460301697109015
Ar 0.6283931212854401 0.04770990469252208 0.8212072576731151
Ar 0.7186000877528251 0.7927892654585637 5.010093834723267
Ar 5.036297109722481 0.12232470362997408 1.6615184643811367
Ar 0.043224532060503904 1.0070293173671059 2.4186982868964804
Ar 0.8655552483028289 0.022701636066512907 2.4857047001872594
Ar 0.8063876380774346 0.8687800590107273 1.5563563957429611
Ar 0.022362085863761944 0.015589617222934725 3.2021107089516367
Ar 0.03318385549610342 0.6431432413522186 4.101151295414966
Ar 1.003322491628883 4.959322908959855 4.166575410538154
Ar 0.927212728909683 0.9567183904387034 3.3917447694617575
Ar 0.01206395201292702 1.7499370634450633 0.12490131083695427
Ar 4.930813354177501 2.5493080993083783 0.8790063573868117
Ar 0.8291162362797807 1.8191288443595695 0.9029412895676938
Ar 0.8517162716253011 2.4219232333980782 4.889874341563723
Ar 4.976572368176729 1.6459655661081114 1.6542012827823556
Ar 5.001251657989277 2.433767340308291 2.5383681207380824
Ar 0.8668078397359048 1.6953756074082587 2.630564895474606
Ar 0.6969152054895376 2.4343172708724325 1.7284164898575467
Ar 0.05123679084841966 1.8302972813429021 3.233775817696103
Ar 4.995511462795394 2.3179538240300683 4.163113799545276
Ar 0.7500145635719864 1.5374132278909765 4.173517720327937
Ar 0.8091392615591741 2.712302742171328 3.028305825421167
Ar 4.995821783480307 3.0267349432885635 4.983185825241055
Ar 5.018700112681979 4.149435002780073 0.9345028438092357
Ar 0.6200343742155806 3.2496740352968603 0.7774833262327925
Ar 0.7803890971543621 4.3025412241306595 0.02600269372293605
Ar 0.08751916156549458 3.336109796980925 1.690417973962095
Ar 0.057990090242794314 4.035293682040887 2.639617700806654
Ar 0.9452774684097004 3.4580118494677046 2.3089210815690957
Ar 0.7526792423241963 4.374534917288925 1.7743801980485228
Ar 4.989287800889574 3.177418591009778 3.3868595730408417
Ar 0.07946864192840669 4.1080389808436575 4.087945201471578
Ar 0.8748588437686402 3.175197695513779 4.136675018473302
Ar 0.8582500468478178 4.307073821987607 3.2481684047323487
Ar 1.6741196569785504 0.2331956371969731 0.22673897703996884
Ar 1.7832660547682688 1.071771156283601 1.0855229265054782
Ar 2.8391688987089703 0.06728112396561832 0.8306800922697885
Ar 2.5683875493820914 0.9190256125919809 0.19473711078552966
Ar 1.7433731740913996 4.888628908800474 1.6858769613732125
Ar 1.5845564360299718 0.8164452049729783 2.4572566090556403
Ar 2.5658853012767193 0.017843706982706844 2.408554512299906
Ar 2.681688522764057 0.8115616406572368 1.5803925297453252
Ar 1.7479768684642867 0.05816129685934698 3.390893019602465
Ar 1.6533541445002309 0.8894100047799016 4.380657843028984
Ar 2.6346829087317065 4.94080010439861 4.292317803229027
Ar 2.423858050854594 1.026971192512314 3.3725526961845746
Ar 1.6427649240138824 1.780503112144095 0.15901790416628803
Ar 1.6815864088935542 2.5828445518204926 0.9130456030259992
Ar 2.497556934270321 1.8494939022392587 0.8659565712998877
Ar 2.3908099657959947 2.5960006621150997 0.1879818039902943
Ar 1.6886096891408253 1.758187124871689 1.8323588276469327
Ar 1.7482402885024546 2.745511641474891 2.5197670383635784
Ar 2.6025765997615107 1.6220861401238964 2.3264132450257966
Ar 2.5689112085762185 2.642573842565032 1.5670851308570495
Ar 1.4710721041244004 1.8948575410339668 3.4254567726668124
Ar 1.6741144573359346 2.5345968553592964 4.314609627628835
Ar 2.312430125160847 1.6506114827840699 4.382681986366444
Ar 2.415900413080262 2.5540027784315793 3.231352504410748
Ar 1.6687389783307234 3.3885009609708354 0.16572915658045054
Ar 1.5908612415543577 4.251765737439509 0.8158609345666146
Ar 2.7055919463836546 3.3575658809361713 0.8624901217718894
Ar 2.4980748795972048 4.122898001259215 0.18592386322823828
Ar 1.639221916946873 3.3272641043388616 1.6048574541189076
Ar 1.7647976729454933 4.0476019405006785 2.5857877813698686
Ar 2.658614705249523 3.4265206180098837 2.504048844967555
Ar 2.6142149775734884 4.190520650500874 1.5767992560498594
Ar 1.6021200355555203 3.3245668462054265 3.4501341221757063
Ar 1.7867473319609817 4.143042707171242 4.34683695666751
Ar 2.4382114410363274 3.2824284627814926 4.325819910064683
Ar 2.449742962563646 4.060553081066531 3.5638546326585945
Ar 3.5475001873706176 4.733819580964726 4.955288541880592
Ar 3.624967417624594 0.7338210134993871 0.6755624810094917
Ar 4.269289496210199 5.012691930000951 0.9384978895085737
Ar 4.263102228449096 1.1028030537954372 4.809049148932096
Ar 3.4509492987948676 4.967657025912225 1.8036284873223145
Ar 3.2692597886658046 0.7221353037525321 2.7486401449402806
Ar 4.273575217551544 4.838590490338261 2.542564784410833
Ar 4.084057933438853 0.8121602005139233 1.7826430060712717
Ar 3.5237704557821394 4.998335240336686 3.332923792040398
Ar 3.1094628581858705 0.9195455595525736 4.295208734745449
Ar 4.202836002009177 4.802372851046258 4.193542692536819
Ar 4.220218187211203 0.8036483307562776 3.1963619963506993
Ar 3.3390765598787557 1.832548616520902 0.19850479617606273
Ar 3.445298455923022 2.6539393323786507 0.8565556423559221
Ar 4.234911513156869 1.7727698471700348 0.854109348867135
Ar 4.042792701065389 2.481366099690524 4.853050330568394
Ar 3.448638331870902 1.7712933441710537 1.525674664741076
Ar 3.3149934872161593 2.4370360783439806 2.349861343965322
Ar 4.17745961233774 1.7516283537475654 2.4192504275650393
Ar 4.247604129381423 2.6145057351124077 1.687937383769858
Ar 3.203454035051066 1.8105265256157297 3.185404567441913
Ar 3.0833753751380732 2.3895655746867357 4.197940052957615
Ar 3.9446520709044606 1.685417667380362 3.991578657975776
Ar 4.17401595668696 2.574667943445098 3.2540420916690307
Ar 3.3452588076585412 3.388143063067835 5.008617855479285
Ar 3.4932430807319386 4.176016449927142 0.756394732073776
Ar 4.275064971472576 3.3935403190504454 0.8955601928929005
Ar 4.279372961632628 4.038688034852903 0.009352655251364007
Ar 3.4690224492230954 3.624177992567874 1.680623501102718
Ar 3.3094654619463717 4.290743795127376 2.638896589331802
Ar 4.1233771573929925 3.4809317583478285 2.520514994162936
Ar 4.390456199747072 4.2700863541872796 1.7491235024873408
Ar 3.346479802320383 3.0771395227773306 3.1624801348301252
Ar 3.4343886492870213 4.052202351339424 3.9986895235783475
Ar 4.2120613674065 3.177481212728574 4.1743319549673625
Ar 4.3142627708111405 4.012887931513334 3.423538223709361
108
step=800 time=4.0000 Lattice="5.038789 0 0 0 5.038789 0 0 0 5.038789" Properties=species:S:1:pos:R:3 pbc="T T T"
Ar 0.0668862217980518 0.0632163389478719 0.10065835452073764
Ar 4.902157993628039 0.8454788640192046 0.7868959149893316
Ar 0.8280566771817194 4.807197304727798 0.8326965337742491
Ar 0.8215659536308672 0.8998265050335832 0.011833827345611315
Ar 0.17742463592383703 4.928449808294606 1.7310640491181546
Ar 0.036233080900536535 0.8610632835730878 2.4851587051928092
Ar 0.8265568567433849 4.952451447490964 2.456112313549548
Ar 0.7061670404603226 0.7540517725991365 1.5239672644554865
Ar 4.98805283524717 0.008239781585661724 3.1577538635987694
Ar 0.050653449888010835 0.8768951733033657 4.245653781067506
Ar 0.7364992437881746 5.0010163112767625 4.0457244768669405
Ar 0.977217038562667 0.8853982623057624 3.3047385990254785
Ar 4.938463802180923 1.707899461239544 0.061620616425018385
Ar 4.97770768713502 2.477187098803941 0.8383565722876207
Ar 0.8547692651515545 1.7792324019712482 0.8504555403695336
Ar 0.7486016047205771 2.5186019771159343 4.9410136491453205
Ar 4.978731475899606 1.6457999230109488 1.5874180816365908
Ar 4.7605676053395545 2.4376055231405926 2.4924130944353298
Ar 0.6883611950987856 1.6671496263501593 2.426310547804962
Ar 0.864014415678335 2.772734780037529 1.8993533622895096
Ar 0.10224258524209306 1.8782767544101961 3.518736631372328
Ar 0.07479822019967662 2.7842838165448796 4.177406555730316
Ar 0.9971180426955875 1.7729536704596278 4.122269860180379
Ar 0.756942898078191 2.6965394025225704 3.3760018948344586
Ar 0.05090430891608736 3.2963439483022077 0.11671491520184578
Ar 0.09281980021073206 4.208807372347602 0.6921108444901836
Ar 0.9706380185878581 3.1782578935322894 0.8279650970136728
Ar 0.8385617542155536 4.154767628204688 0.0644310136280667
Ar 0.07325105094552577 3.3568880277096325 1.9654954959197173
Ar 5.0084901563662045 4.257162536498468 2.4998325134733856
Ar 0.9048915635072702 3.5595648444827184 2.635986646219365
Ar 0.9651276438758842 3.9398934783790622 1.546271556216966
Ar 4.933495822632737 3.247829479549333 3.169757360570503
Ar 0.01971965525507202 4.201612631937204 4.377019526281252
Ar 0.8388771515440935 3.4935397853099626 4.210674699436274
Ar 0.7790537663636845 4.397570335481308 3.3490491867500354
Ar 1.5144656973055182 5.0147960414697925 5.009000531393727
Ar 1.6738462723241678 0.9879372721293133 0.8683422864820841
Ar 2.48259533576972 0.09337478845283236 0.6683651378019178
Ar 2.288005373368265 1.0783813544867364 0.023240701375956713
Ar 1.625103235945385 4.865701305685908 1.56530338631183
Ar 1.69545584951379 0.7528235471265206 2.4171021114419755
Ar 2.4392647010935113 0.06536296979231591 2.6501260328118055
Ar 2.6472105616003803 0.8586110179593016 1.6430723039634028
Ar 1.7287729571913837 5.002390446728339 3.4237396910808258
Ar 1.5953368102452767 0.7842218309610279 4.24805815674875
Ar 2.418087087744045 0.0692488454542869 4.356199769030241
Ar 2.607317702310913 0.7505389854446644 3.399429469817512
Ar 1.5914274367789196 1.8065953753254802 0.010134186092293983
Ar 1.675238429376023 2.4395484386708906 0.7683076681436677
Ar 2.700441002895453 1.6385868503301546 0.7653993821612562
Ar 2.6369468744980757 2.616406283081632 0.01402656075117105
Ar 1.64896639833065 1.9406053708338793 1.7519726514835616
Ar 1.5519479590175171 2.622403620134446 2.759135252527263
Ar 2.8500776547935365 1.4928697620044917 2.6625737588409897
Ar 2.596192864369526 2.5659218443103327 1.779992486917733
Ar 1.7896605469784754 1.6458561836468777 3.113998411288336
Ar 1.603093136149679 2.5724108891104907 3.876240936317284
Ar 2.2678631644734737 1.7565006059670372 4.151086825537576
Ar 2.685074944483745 2.3716840025726897 3.285538516546731
Ar 1.6126237530537895 3.2423011596634055 4.979098361393034
Ar 1.7205849050418955 3.9694127219692033 0.6655203444699583
Ar 2.4553781135444566 3.1256741349228556 0.9654595111380525
Ar 2.5562687804105786 4.178777497275268 5.024732927040773
Ar 1.786126716514725 3.260040447691354 1.8916392397240924
Ar 1.7273113740832984 4.30399255535827 2.521330628009357
Ar 2.5559839685054704 3.461895507107982 2.645422936276708
Ar 2.4675188566671773 4.0478242840330925 1.6124196167477707
Ar 1.5839290581587573 3.6384708731349344 3.3976699551380265
Ar 1.520354702595291 4.271635175831904 4.227341642059395
Ar 2.3695083547975746 3.2386609232803365 4.112861937432919
Ar 2.4496278063574706 4.277188603888935 3.689587740714914
Ar 3.4273546285062397 5.018038912459644 4.915598309681884
Ar 3.380705680584498 0.6927355934140527 0.6397910537243503
Ar 4.108856709916469 5.0184409980401385 0.773294858205804
Ar 4.207078545103499 0.8968893047089248 4.831621916885525
Ar 3.1713118795245085 5.003757677935126 1.7266477130357953
Ar 3.6007375053334316 0.6307122554808129 2.6960736775077416
Ar 4.245002713674592 4.98089654695069 2.336766855164252
Ar 4.025957138591762 0.7072033733960135 1.6389224197326329
Ar 3.254975464393402 5.007523475234938 3.7378565264117443
Ar 3.1865760854919456 1.0730502084259659 4.135912420020898
Ar 4.264161486501623 0.07619862592954671 4.010639332929344
Ar 4.45934113054241 0.9735107619918355 3.3814444396373187
Ar 3.3486639504046267 1.637540601688351 5.006707682299875
Ar 3.5568318286423826 2.435680809175537 0.778112428455297
Ar 4.070377406775312 1.4374605267148126 0.8225261610070146
Ar 4.2337624775936264 2.5575251339147997 5.017487038254793
Ar 3.2855019416389526 1.7950562695075758 1.7943571353238228
Ar 3.5677785579796253 2.525727258221396 2.680892253699333
Ar 4.15169417377956 1.581910190745469 2.3601607602071053
Ar 4.21836863685081 2.3779596565541827 1.6467983443319634
Ar 3.583643307045334 1.6542764718759158 3.3358434887201294
Ar 3.222124729628784 2.543003376435242 4.19951713987546
Ar 4.274383405835777 1.7355318578644348 4.195006757372875
Ar 4.105291948523152 2.6148451015769854 3.5339278243671943
Ar 3.437437011212711 3.198804744199002 0.13784869827360824
Ar 3.236702703332302 4.117567655091379 0.8659492096682383
Ar 4.228744532965596 3.3245360670523723 0.8154261656952465
Ar 4.228570427030497 4.278602225901017 0.007766175453697415
Ar 3.4442092910066724 3.307355761292505 1.6708847097632307
Ar 3.2404157081812324 4.251975845906952 2.443816558618369
Ar 4.171271614677306 3.4314171277136354 2.5049052223723978
Ar 4.325740234418463 4.23594905438841 1.5747742144194579
Ar 3.3353960145386305 3.3364558743166577 3.4759811921493733
Ar 3.3889500476774126 4.061226379130801 4.170883741043062
Ar 4.2273983226652625 3.3894171696897613 4.4407138817597875
Ar 4.387248285368949 4.1797270671472955 3.3785441235200167
108
step=1000 time=5.0000 Lattice="5.038789 0 0 0 5.038789 0 0 0 5.038789" Properties=species:S:1:pos:R:3 pbc="T T T"
Ar 0.044171067191535525 0.04095211646165045 0.03816900890884093
Ar 4.891980129861391 0.813693107917042 0.6142281632602562
Ar 0.7823068559855588 0.006959353177339814 0.7838169197493781
Ar 0.8818648556139669 0.7756773949478528 0.17250396192253595
Ar 0.0016191451880169794 0.07462499080629756 1.5822114559327225
Ar 4.968300492416903 1.0025056354620796 2.497805578500368
Ar 0.7640625884844094 0.030779305004180718 2.5169028083106153
Ar 0.7919694114165191 0.8146981745635385 1.7818074659233454
Ar 0.0010831794540591558 4.8842225643077795 3.3314060990314136
Ar 4.86145827118963 0.8190137728302841 4.303165465771363
Ar 0.8451917265055738 0.06904431168870524 4.151570793565184
Ar 0.986187217012466 1.095307664590624 3.4062152981252622
Ar 4.977601200784604 1.7574121969309797 0.10101463416710812
Ar 5.000533649442372 2.589059246972394 0.8422881082942442
Ar 0.7764728353259566 1.6545367120478456 0.8651999949487476
Ar 0.7491271587321716 2.6081529525058293 4.898864786377542
Ar 5.020085916909962 1.637334707607659 1.578318585051839
Ar 0.11098276156277331 2.4560537145630104 2.4762473427868192
Ar 0.9900232128470223 1.8889391294470157 2.643261330707471
Ar 0.7762459490307847 2.6085116908086894 1.5261756061937684
Ar 0.026935397886374668 1.5840158252788088 3.499886658225884
Ar 0.029981400247033486 2.5243517590477786 4.2306708709537855
Ar 0.7268495482559223 1.2912836359797637 4.3274311853516165
Ar 0.8524360934673617 2.6377648819472834 3.4794046191962504
Ar 0.15818242262805088 3.513337539582301 0.03775506782896296
Ar 0.08486625972765446 4.163366285132476 0.8348960691662702
Ar 0.8886998351194729 3.4494212582006916 0.7854820574020218
Ar 0.9735117298460645 4.260636709774905 0.03940377041277876
Ar 5.011770592216217 3.3597411433430917 1.6012318147101774
Ar 4.941964663611964 4.1025511155234895 2.565138403316055
Ar 0.7576003791931828 3.3021559616380354 2.5039466299474493
Ar 0.7063114487430877 4.222871805602583 1.6610935771622533
Ar 4.940902537427135 3.369321883310573 3.4018813793714906
Ar 0.20552656028532448 4.266460978433475 4.297141976242834
Ar 0.7764725026862699 3.4091189585053696 4.176921902035814
Ar 0.7636425612096861 4.045116238024817 3.2903324024229175
Ar 1.8893230602989 0.056550483312513215 0.07208432347830222
Ar 1.7042554478308167 0.8735431949958433 0.9341723964611359
Ar 2.4451314482192212 4.950994326169445 1.1743271673284623
Ar 2.6015753552991256 0.9836568254969923 0.03585690219960574
Ar 1.457957197472963 4.931308126891662 1.753410318863428
Ar 1.6209655292775809 0.730376901935954 2.518273287736269
Ar 2.2747227967439607 4.891775543734036 2.3706646416653165
Ar 2.5403309597849675 1.1416131694253342 1.6929174976688932
Ar 1.7805849204551787 0.09915814718471727 3.367552078861427
Ar 1.5857282590175155 0.7892234336883558 4.405891723451427
Ar 2.6233068392234773 4.872496155874097 4.263718136511949
Ar 2.565958057465398 0.9069527346956976 3.2848759042719022
Ar 1.4762123840878527 1.715388859757596 4.929728633446643
Ar 1.501694230308629 2.594623732491665 0.6712586875359278
Ar 2.3445846754801134 1.6824518223030622 0.7149443089513738
Ar 2.3836491657329035 2.5999057180328164 0.07649604055420489
Ar 1.4967826442473777 1.7486177992795005 1.6872693190469503
Ar 1.599865130844585 2.72991300086368 2.4644242652495922
Ar 2.7871189602575814 1.7268733240947358 2.523160312476717
Ar 2.440275564172979 2.255063666604093 1.7426890146908847
Ar 1.7521155183174049 2.0481394719123185 3.3094515229641095
Ar 1.6446785462320637 2.5872121042484757 4.24172066464433
Ar 2.469105426658007 1.7414296172079589 4.3503641568024936
Ar 2.859314979788887 2.5534326334220605 3.3738718276379487
Ar 1.7177609254208086 3.475993366894046 0.010506822785104605
Ar 1.5352709375472626 4.319245251189488 0.9507183918213344
Ar 2.544374023932968 3.293079880582411 0.8166110826588033
Ar 2.4271705496436495 4.200947858605496 0.09347792067154446
Ar 1.6674255528534079 3.1953625408828894 1.5476756412156654
Ar 1.60834770423032 3.978598248234642 2.3887461793863114
Ar 2.5569113095444926 3.3414890165276856 2.29173531518614
Ar 2.298597660241426 4.026532366072094 1.5689195268855045
Ar 1.6632698974279165 3.31546866914748 3.3501862357560555
Ar 1.5211956948567416 4.178233007922227 4.1474698059120465
Ar 2.434290254489339 3.3670504525683773 4.147998549663817
Ar 2.766019600757991 3.85620790856652 3.3382153139917716
Ar 3.4476459813835763 0.13403920671975625 4.990570565183372
Ar 3.22630983613758 0.6489546907360537 1.0796463797969755
Ar 4.075229101811518 0.02061823741898868 0.8202277586299345
Ar 4.138090450837638 1.0233525900495106 4.928222343071719
Ar 3.2982317406189448 4.975548482551074 1.8107434765027077
Ar 3.407665755442226 0.7749384393452676 2.4181941967610707
Ar 4.200005259085591 5.022811704458276 2.575579646528083
Ar 4.273685452300747 0.8389522444229897 1.621929945632029
Ar 3.2408280612820093 4.868107082626729 3.2901199539388495
Ar 3.516008051995464 0.840863640746328 4.062778746720555
Ar 4.277869199318858 4.9394879366119815 4.28012006924533
Ar 4.384048820147043 0.6207945903579752 3.434638082749971
Ar 3.3152324429942337 1.9828669259175908 4.997210099714977
Ar 3.3322263765568283 2.4457772051838913 0.9289664742098804
Ar 4.206359221067617 1.6545031575490015 0.8809708274418353
Ar 4.180682939310632 2.435746814476202 0.10956998612966522
Ar 3.479613422877933 1.5321766812159299 1.7615547839613914
Ar 3.4467504693304596 2.6227494397964946 2.4144095919858737
Ar 4.285843994082412 1.7953078607533361 2.3559392788896805
Ar 4.256908454730149 2.527139028466739 1.6690753147317372
Ar 3.6188200965069623 1.6171040247108939 3.2380268455960435
Ar 3.5444698532127954 2.6561061562215125 4.274921067094724
Ar 4.137965366992265 1.7872082559028752 4.173690069179485
Ar 4.323889412321846 2.4449746976701956 3.2335756441237615
Ar 3.228357248149426 3.331994247855317 5.033358447504787
Ar 3.320786903870537 4.340013489996929 0.9363178417389342
Ar 4.2213250755828655 3.3131756217166513 0.8633924382266218
Ar 3.9485273210520933 4.020353659798079 0.09006259444337092
Ar 3.470871510866445 3.381827567431536 1.589114615805132
Ar 3.4175112540905626 4.113533773173474 2.4797150424990746
Ar 4.274987292766893 3.3197161616620194 2.3470420134595207
Ar 4.238750946598653 4.242135051463255 1.5838108185967816
Ar 3.616540112332315 3.309915264371366 3.3345921662679907
Ar 3.429251918807127 4.020419109525484 4.1652130210680545
Ar 4.4379636660669535 3.4015515381923174 4.3316889553181
Ar 4.222537227766692 4.201914342087775 3.4180524690669665
108
step=1200 time=6.0000 Lattice="5.038789 0 0 0 5.038789 0 0 0 5.038789" Properties=species:S:1:pos:R:3 pbc="T T T"
Ar 4.926232585162394 0.1557545759018179 4.9313823086046416
Ar 0.1709639407566483 0.9310632020665053 0.8028771418929046
Ar 0.9072546094638502 0.07299221890811089 0.8871310553618513
Ar 0.9114682031669097 0.6446590108724054 4.983316014941861
Ar 0.06124499420266044 0.029439781142364962 1.877147737834763
Ar 5.009823323291164 0.8965910349123832 2.487378353627806
Ar 0.7796502429640213 5.034630142805428 2.683657735052686
Ar 0.8718909655622139 0.8045392915675369 1.7264953720515495
Ar 4.878084221476705 0.023164326342159758 3.2393694886557323
Ar 4.87124059866626 0.8518629555540329 4.091465272600645
Ar 0.67962892981681 0.12615244464050657 4.110987411554476
Ar 0.6103751174794059 0.8942453654998658 3.3712803094965764
Ar 4.905838334797926 1.7541695371543962 4.69471564981648
Ar 0.3714398134269726 2.2906129236167594 0.5869759885192016
Ar 0.9637038825982254 1.5803611122757766 0.9008162129072003
Ar 0.7392566288747159 2.459949638131581 4.566536644309771
Ar 0.07995659586082203 1.933603155289714 1.5651701731751828
Ar 4.908659709068237 2.6904919704258967 2.705387943425718
Ar 0.9113920954478628 1.589264249750365 2.6535817081448183
Ar 0.7542174255492528 2.710773801880996 1.971945963962096
Ar 4.97869048137625 1.7722985865743566 3.3019113384760477
Ar 4.863666118838056 2.673057550242415 4.162725258969573
Ar 0.9283237788496603 1.6021976977294095 4.119686263578679
Ar 0.7390598588551316 2.7476401149247827 3.4306809963394373
Ar 5.013929308895811 3.363154196109806 5.018599895686218
Ar 0.11607690950211719 4.45706523755052 0.9154530336499512
Ar 0.5180916340139111 3.2613218598709928 1.1011801040692684
Ar 1.03095069778809 4.067704596557122 0.09781108730382328
Ar 4.993220623125771 3.4773894204929974 1.9214620500536561
Ar 4.946141501704064 4.261094354496046 2.5827857642866014
Ar 0.89582336849894 3.59268034135327 2.6607333708657577
Ar 0.9425556409467983 4.391138732278672 1.7068464991866865
Ar 4.901262245737323 3.484133799778654 3.4684014731052923
Ar 0.10673286819013765 4.256953907562393 4.262526122416464
Ar 0.9211308394120371 3.4653553718543364 4.240160906308438
Ar 0.8311505010920199 4.302580170909704 3.4468668796064965
Ar 1.7949826587136435 4.93611651357454 0.036512095892879855
Ar 1.732686707158867 0.7749754465237211 0.656355956265631
Ar 2.528610489688106 4.8730869731586495 0.8154384112983775
Ar 2.702635684063853 0.723696627066162 0.1616657884286263
Ar 1.8841268624177632 0.24660171147939436 1.6161352716632384
Ar 1.7146815803550541 0.7916108957691019 2.6881663402843747
Ar 2.60837369987241 0.09968385417577325 2.377970897523508
Ar 2.6850364269842735 0.8531080449372798 1.4949874963300762
Ar 1.6533145703566166 4.948458586737638 3.47687493330151
Ar 1.732620704065799 0.7095423875601498 4.345580924859026
Ar 2.747908923684851 5.030151869263423 4.333655433665188
Ar 2.5602103206948206 0.6553688150461545 3.5978070968138898
Ar 1.5953075058741693 1.637683579990579 0.003447965073031468
Ar 1.4785563235271169 2.5735197955619347 1.1559222116923453
Ar 2.496151097263367 1.7224465331913092 0.7521132308031012
Ar 2.6126825077962317 2.6384372058036156 0.17879312002753522
Ar 1.8201038672519785 1.520990690809856 1.5501141498161763
Ar 1.7511393313202785 2.5000819202036184 2.5212704697268586
Ar 2.539312688801712 1.521352165489685 2.4050822636983407
Ar 2.5095334728865786 2.4852581276957553 1.498293019372124
Ar 1.7893511284599461 1.3976779142093017 3.528604779365356
Ar 1.6631755126688794 2.3296235251148363 4.093716159984002
Ar 2.4590155116735275 1.5957656923419068 4.345336782285165
Ar 2.4620944818344173 2.2057422553416455 3.391362206922557
Ar 1.6291988103454318 3.0807511416260187 5.027423668594634
Ar 1.7615370505375805 4.153689092825237 0.9654290990186872
Ar 2.4410242548469827 3.383844878493779 0.9238444172498306
Ar 2.446129565607099 4.027070004285336 0.0621039369750379
Ar 1.6667105424920987 3.529727517078566 1.8948494244354268
Ar 1.6384232116207431 4.344515779615852 2.6275008771505397
Ar 2.855728718126137 3.266013216268866 2.3700424847550567
Ar 2.425684931618217 4.300230290893435 1.7700800315151146
Ar 1.7250720782766018 3.4155352530203587 3.3386768995378096
Ar 1.7979771898243522 4.139810397658778 4.205876164259843
Ar 2.376385152908054 3.1725192003129723 4.118107260267453
Ar 2.378496324543058 4.292585562263428 3.289933322538197
Ar 3.434470579316205 4.9638134244912315 0.09716388343691368
Ar 3.600974880723219 0.8544922590803364 0.9789259548360821
Ar 4.251080000271334 4.965864796139511 0.7189671712157442
Ar 4.186099519688398 0.8689279422282288 5.033503436326951
Ar 3.284457017709625 4.995374460901173 1.5294663147823282
Ar 3.46795777936362 0.9158291346656631 2.3971769331779256
Ar 4.179370362469546 0.05201051991731764 2.315791443419505
Ar 4.616010306898814 0.8614875809950814 1.5468884562349203
Ar 3.3724146451077535 0.062359464093263484 3.1612832918097187
Ar 3.4506434991441397 0.7664905145426759 4.282676677359113
Ar 4.104037279812813 4.926450874382437 4.201878915177439
Ar 4.194541397422605 0.7091034596391188 3.1519648513717247
Ar 3.2551960332620293 1.7197789549131048 0.06289995617492758
Ar 3.4287772489852557 2.667676368824988 0.8084055066793431
Ar 4.373454714596855 1.7941982814769613 0.7189630323323829
Ar 4.074948894145791 2.6879011146206606 4.888537021867205
Ar 3.2862002499986875 1.6979902885612563 1.4207297193138986
Ar 3.3086460890705953 2.3559922590384472 2.623186676299859
Ar 4.222217495194136 1.627250022692633 2.6281488697677764
Ar 4.21578076537433 2.5886433702267686 1.9412571147401152
Ar 3.2634898422733065 1.329782821080175 3.3733760410908555
Ar 3.230414004698295 2.474338171628566 4.130495834274912
Ar 4.06952210053602 1.7906849424321165 3.9695922040022698
Ar 4.097800368481978 2.567158415395136 3.4141286661141623
Ar 3.254690025555178 3.3373866710591513 4.895584100392725
Ar 3.4015743533989964 4.037170677171354 0.8193592355274958
Ar 4.265971533937746 3.258946392393487 0.7786547024130503
Ar 4.2450667000901525 4.234093533246831 4.905086085051644
Ar 3.5646820336828036 3.4363702620014887 1.6988662890087174
Ar 3.3921420703858254 4.234193703664298 2.3740195575305014
Ar 3.898877013171268 3.3666001722505565 2.7288166855449436
Ar 4.154817127998691 4.262033866847225 1.5946659430137007
Ar 3.0756520021397495 3.3551106258198367 3.428048245005169
Ar 3.1773550971200657 4.144468571869284 4.101738176999364
Ar 4.030491599106888 3.4268594597719537 4.1936661473493935
Ar 4.078015612656274 4.230389483490952 3.3249343172421955
108
step=1400 time=7.0000 Lattice="5.038789 0 0 0 5.038789 0 0 0 5.038789" Properties=species:S:1:pos:R:3 pbc="T T T"
Ar 4.917413033268495 5.001462495897252 4.976302557838672
Ar 0.17463708909404368 0.7548850365849372 0.7991453783641772
Ar 0.6666719114801963 4.886790815916786 1.0146846898056248
Ar 0.6281459102673682 0.7487881458101637 4.8742278593132875
Ar 4.924010398627997 0.009907208251440999 1.7530648313714576
Ar 0.12361610473224373 0.7851870069904797 2.6360136904066906
Ar 0.8184947522760456 0.03374605977385141 2.388056657368378
Ar 0.9264166813668702 0.9187775080290062 1.6533001077298715
Ar 0.007717207616862787 5.014624189122118 3.2254499883163263
Ar 0.17772928633977345 0.9376888189795725 3.9885930672638046
Ar 0.8222736606548665 5.0198487859960155 4.027394268863098
Ar 0.9745238619813148 0.7961039580083998 3.312116971679101
Ar 4.991527127375868 1.669837516908628 0.14054611492665792
Ar 0.003974678624619062 2.6025045921269814 0.7773744178578611
Ar 0.8910464763955108 1.725585474414549 0.889774429826162
Ar 0.8715245113326553 2.307730547719377 4.963833579882204
Ar 4.9371000378978485 1.6210515033194335 1.3015762706684204
Ar 0.013309702465510177 2.4460316131837443 2.492980922990806
Ar 0.8680376525076903 1.7515315035561048 2.492863429959208
Ar 0.7481351473071157 2.657611957728723 1.6340847734561037
Ar 4.992126941775562 1.7339843282206195 3.3928002997786915
Ar 0.055466078862445665 2.5243517549938668 4.263564523502369
Ar 1.0049146176561072 1.6987698786926053 4.030454233783754
Ar 0.8482227618216086 2.594998513774433 3.387894186896382
Ar 0.13351708461354758 3.380000191925169 4.916582537591574
Ar 4.963240758010761 4.064055558252567 0.7171458404136548
Ar 0.758249889895178 3.451074186984486 0.7100938221283829
Ar 0.8220011224527081 4.349804802181883 0.007538943161217087
Ar 0.008930204727422767 3.3890503402367855 1.477510184387089
Ar 4.9949168638596015 4.149999228886634 2.5359126484256818
Ar 0.6546089712452489 3.375803536083003 2.539733293179746
Ar 0.7963771794023627 4.15279019199701 1.7945080651363414
Ar 0.06931775469230564 3.341101679047487 3.464934822404029
Ar 0.0976863683692118 4.206176119058983 4.168653084804491
Ar 0.9725248784322641 3.625659777563698 4.195212920670179
Ar 0.8123484835622317 4.244066193644597 3.1921841627492893
Ar 1.655658398352735 4.877104441242817 4.80533540929007
Ar 1.573817693501477 0.6498097801537773 0.7750643413237353
Ar 2.371820647558608 4.958952325032082 0.4860313322391089
Ar 2.528521296174495 0.8190103732879738 0.09284739697378813
Ar 1.6020763100695725 0.11651697765597376 1.5423824538216286
Ar 1.6979395904386723 0.6473460309180196 2.503566710376041
Ar 2.6473428403589545 4.893259507383217 2.5924066717987038
Ar 2.6473058487771444 0.5248707779341797 1.732580383272826
Ar 1.7320045518475198 5.019678602139476 3.362298383017238
Ar 1.8292537583149304 0.7658830361988387 4.164709725371539
Ar 2.5224924654735017 5.037621690087484 4.291591923824291
Ar 2.6577257074563825 0.7142738681507641 3.3642889930529836
Ar 1.6219464249250681 1.4701496208783063 4.963423322683945
Ar 1.6330366317078602 2.4031117002224773 1.0855555037784523
Ar 2.274263032033573 1.6080112187351179 0.7823751376213085
Ar 2.1327816563246524 2.5694419723557647 0.04862206115066873
Ar 2.1400516350260723 1.564936656986861 2.1393481537972248
Ar 1.5232726651465662 2.690122313277398 2.4950199676476923
Ar 2.789486352451016 1.7063269291605814 2.8746268430200956
Ar 2.3908448965934386 2.5646494651255973 1.9836244487836627
Ar 1.7219755519654472 2.081357542977738 3.3323756320447107
Ar 1.5918361093889648 2.699756656958896 4.230461543784686
Ar 2.4599670419843482 1.5318559665381564 4.17874541526362
Ar 2.753464012437416 2.4180949381628416 3.5261531720115267
Ar 1.5370513273100013 3.44801126161647 5.027115774639788
Ar 1.5926471158131272 4.213097054616687 0.870125514215518
Ar 2.3458760714383153 3.5381915264986854 0.89324376462053
Ar 2.4398196718789578 4.060262197283495 4.936376582085833
Ar 1.6296146671934735 3.31348992168713 1.6712457725388716
Ar 1.724340041414444 4.399980922272779 2.594715433341016
Ar 2.6410028199269453 3.462867137809054 2.5838361573324695
Ar 2.2808090239621785 4.327018692359855 1.6943706415518938
Ar 1.7633736278766716 3.381792493480706 3.302271812000944
Ar 1.8246765271706966 4.0947155697605595 4.0863300261161974
Ar 2.5840926420284394 3.271809648449779 4.297425091044715
Ar 2.5233750048692576 4.213382282510135 3.353858637982391
Ar 3.505007347248794 0.07630327380380816 4.991872496464355
Ar 3.307120947612864 0.7997007612802199 0.8283516915141065
Ar 4.355765718608228 4.861864137926744 0.8284127151419735
Ar 4.272641152569126 0.8923408149614533 0.2668436490412601
Ar 3.5096750377471775 5.015512661050674 1.744978558699994
Ar 3.398720010552059 0.8829496685739032 2.525757925197697
Ar 4.237080752046294 0.015422422526063736 2.603123335593645
Ar 4.112938635637773 0.7417994902410822 1.5190431941625089
Ar 3.3473061566643505 4.774482755396161 3.536692332238094
Ar 3.2249860045280023 0.7078569199986149 4.204518020118015
Ar 4.236338996825162 0.17417438796095486 4.162144756043911
Ar 4.155219840512671 0.752518429998133 3.3020256216679065
Ar 3.1088953696078456 2.2024003191781922 4.966654920815972
Ar 2.942356139082262 2.6297629963779467 0.8821983775467481
Ar 3.83102609136559 1.9037356186293315 0.7711671532425475
Ar 4.275336077574766 2.653083157499859 0.08158391129539244
Ar 3.0249092930668287 1.8370966745313464 1.607610181811412
Ar 3.5887430609535587 2.612930420799455 2.3709879420749216
Ar 4.251619918951591 1.676780990170589 2.263689561246044
Ar 4.292172862101997 2.46201607405915 1.533500660928529
Ar 3.6926325010190584 1.7399058533373806 3.4079481926317268
Ar 3.5226256128746196 2.5790190456272164 4.180418304078472
Ar 4.3475619302535815 1.3468069651243681 4.232570599340874
Ar 4.293334898639267 2.621627712733341 3.4226772731886963
Ar 3.3350581612747545 3.2486898628101675 0.03178313179255406
Ar 3.132356253901022 4.2919418123108795 0.8789458176235504
Ar 3.9837180121774436 3.2062841180533397 0.9197236198028212
Ar 4.129424016561702 4.0263603355099225 0.2056619246083466
Ar 3.17633110289262 3.351133881796501 1.7258736939713257
Ar 3.5874858852601164 4.150212341288577 2.568573293995594
Ar 4.31023477508218 3.311526021001708 2.4839655225788486
Ar 4.288307597143483 4.186763280444864 1.7220097487739487
Ar 3.375650860078837 3.571667497827071 3.5221147506600854
Ar 3.38667993252845 4.155257518453881 4.374330109473433
Ar 4.255627759928883 3.4703122941427407 4.251175466077331
Ar 4.365798292615858 4.252566091211845 3.4139854143507593
108
step=1600 time=8.0000 Lattice="5.038789 0 0 0 5.038789 0 0 0 5.038789" Properties=species:S:1:pos:R:3 pbc="T T T"
Ar 4.94718718828177 5.0150742421208 0.08331577198133464
Ar 0.26463069361173414 0.9462838902641778 0.7020814462974027
Ar 0.9182242590332829 4.942468792443359 0.7965833285410482
Ar 0.8221825714364372 0.7958510093867637 4.953969128929913
Ar 4.826893945291529 0.046572117754727985 1.621115580679635
Ar 4.7829946213154315 0.789073623338057 2.5170606335244354
Ar 0.7510753523322505 0.0478569226136207 2.403487862208328
Ar 0.8098886773633134 0.746204979165603 1.5090422931804435
Ar 4.884653546031027 0.12528685514037538 3.307191414768203
Ar 0.017014593450686486 0.7315378393318078 4.1470568050485275
Ar 0.9370460836188846 4.9833507091992475 4.342077836177829
Ar 0.7749383191334384 0.6280198713063275 3.4614916544032526
Ar 0.3397939803899832 1.712836067050303 4.957737652180124
Ar 5.031799324424374 2.4804193823974527 0.6523183592109233
Ar 1.0167012402789926 1.938690683575309 0.8347586952175939
Ar 0.8748453822535794 2.6866527476866695 4.9957557247731375
Ar 0.10557804269913575 1.6307982243312944 1.6136349217346713
Ar 4.961569349692247 2.515088939468835 2.419515215647122
Ar 0.8064888037455515 1.4339128726180113 2.526752108997656
Ar 0.8622975127312366 2.4537428953067306 1.948084653455662
Ar 4.916298908494245 1.800185943198199 3.4213258451873547
Ar 0.27390085961063104 2.657888837793432 4.199783131685511
Ar 0.8945430469200754 1.5646011011573955 3.974303442850828
Ar 1.0259320140346615 2.4484480634036943 3.184578940524095
Ar 4.97745405294717 3.3653378950739756 0.0710265846051412
Ar 4.76912614853085 4.124335533224431 0.8377336661819207
Ar 1.0628577150535037 3.287198469223263 1.082152666447076
Ar 0.8471747171944822 4.2440042123237145 0.06665552459266685
Ar 0.10446441801171241 3.2187995465103345 1.5428102048896617
Ar 0.01838678075814773 4.181778848653838 2.3271646029116475
Ar 0.9271152554479393 3.4130858529596164 2.505894801223789
Ar 0.8186682421390747 4.178561333070994 1.6177466521663382
Ar 0.2816227718735502 3.333471240522975 3.204651997784986
Ar 4.982090867905756 4.099394747507889 4.2179800662028075
Ar 0.8969956103906757 3.508308180203947 4.063941224326568
Ar 0.7342273314455922 4.330736059728425 3.3276396110221893
Ar 1.6877033077531343 5.002321476229723 0.14026483454203248
Ar 1.7973991324036582 0.7109568507719279 0.9709404425566623
Ar 2.5602033873994636 0.044607101867986505 0.9266146930009775
Ar 2.5263867989905986 1.0800748530949933 0.24260481267826015
Ar 1.707177135063276 0.13329573536461933 1.8184435483041985
Ar 1.6497665854913777 0.7876904302753581 2.702906606338457
Ar 2.6161800487143365 5.035070648750266 2.50068895280288
Ar 2.6746256035482348 0.8454073168686596 1.7312575009424749
Ar 1.6792671000853923 4.96537830544416 3.3764937244266915
Ar 1.664214606489825 0.79729016429074 4.2600728334311295
Ar 2.417431093347009 0.033598897127201044 4.3950727529780185
Ar 2.4250660582878734 0.8032610620602392 3.453105553680393
Ar 1.6393272134908436 1.5791489948865698 0.03761403776822332
Ar 1.7665832209080996 2.718139352209837 0.7103934969345848
Ar 2.4723949859460745 1.7312848642846974 1.1309784084609062
Ar 2.5663979743414775 2.280373183638709 0.07153430769902362
Ar 1.6203183977202225 1.4877197977019985 1.6497859582844516
Ar 1.8486850087925435 2.6194832614893824 2.5343372670620963
Ar 2.8411770436120127 1.6994628183634461 2.4404727877055863
Ar 2.220546874862405 2.6826333149471084 1.6112842505996894
Ar 1.8742669442536355 1.680060392184358 3.2191218739763876
Ar 1.4900881745070245 2.5669598489640855 4.074615349919853
Ar 2.4179363172513066 1.578503497255478 4.336223660102294
Ar 2.513837360069764 2.668264828521361 3.330978059022538
Ar 1.6826496584818422 3.5241005408328987 0.039514003095529895
Ar 1.7467118251809202 4.300946061365994 1.0164981648782994
Ar 2.389228110625676 3.5294337569416085 0.8494213277655488
Ar 2.480851626986598 4.185424166392587 0.1254106631455623
Ar 1.6916000719460764 3.6497032466245156 1.80117184104073
Ar 1.593023191039739 4.419826292028116 2.492221393430395
Ar 2.627386876835588 3.380658658442956 2.6186724972296376
Ar 2.589803306164063 4.276571529297875 1.7198287082225345
Ar 1.7189991861599854 3.55644027413862 3.136479057774872
Ar 1.7802748216445263 4.2580724423372045 4.196623289482333
Ar 2.3266077188143663 3.3368177835795216 4.2200789923101425
Ar 2.705903133385751 4.22453082485187 3.313080211068945
Ar 3.2580968698339485 4.987782077269292 5.025670340307352
Ar 3.2775134738623226 0.7841924205148566 0.8758356674799819
Ar 4.0035181111808 5.02503780918591 0.7381316833352447
Ar 4.194929005228469 0.7847279540093931 0.0826890776091409
Ar 3.3388056491308253 4.99091711910526 1.6316648801905047
Ar 3.319278979766253 0.759966476787404 2.7622067049862906
Ar 4.144125274133491 5.019085719139297 2.400819196288971
Ar 3.938265788713308 0.9070060617062962 1.7393808104798196
Ar 3.515705448614043 0.006229082188994917 3.524713904129856
Ar 3.3094345094125632 0.7778043477916282 4.178347518854567
Ar 4.357856978762703 4.979087223543547 4.187670104821231
Ar 4.148559604562378 0.9220109877066572 3.433768232842128
Ar 3.3604118984334455 1.4894682996047672 4.854977377015068
Ar 3.148845050513191 2.680059250234712 0.7653877456437705
Ar 4.449707451008895 1.6207379937198392 0.691937133920707
Ar 3.8840582842389835 2.2865165330133412 0.05098333545897215
Ar 3.483393465906398 1.8386893221141585 1.3987781473092316
Ar 3.455656945937716 2.5783576071542744 2.535251677916449
Ar 4.152281298303012 1.787026190451381 2.3618292642733456
Ar 4.393311369335467 2.4412774241985025 1.4147841749409673
Ar 3.2091864947707784 1.5797464687127591 3.4991256306279075
Ar 3.365519680982835 2.386602050492061 4.062100247021113
Ar 4.142541096935992 1.6506238117880092 4.191301628567466
Ar 4.030342593832423 2.4014289304729326 3.366171597816462
Ar 3.409592273520044 3.2697395337895943 5.006920538990655
Ar 3.3442463620660883 4.217330678965352 0.978101799502195
Ar 4.104724629602628 3.249678896197264 0.7860128843211521
Ar 3.98170310554161 4.227686970585041 4.937773591265486
Ar 3.3264423031478825 3.4104795737417306 1.7421194333692076
Ar 3.4177172149316664 4.208465773446624 2.4847029179608167
Ar 4.349871436366143 3.4477958987389137 2.5636872894963285
Ar 4.065972635858065 4.239488494421753 1.7131304852127915
Ar 3.2706423280992922 3.339074869087838 3.449856730346406
Ar 3.1346925036831736 3.9948719359432707 4.2336306458580735
Ar 4.2970469317007005 3.2014706988248425 4.255595040658274
Ar 4.27269240172852 4.1023245651312585 3.4587225046312597
108
step=1800 time=9.0000 Lattice="5.038789 0 0 0 5.038789 0 0 0 5.038789" Properties=species:S:1:pos:R:3 pbc="T T T"
Ar 0.10678603907103906 5.015936116521887 0.0945784507387588
Ar 0.13936344962998348 0.8803287205264019 0.8438501789650735
Ar 0.9239914898648266 0.015778590642818408 0.8395372564297708
Ar 0.8855458622726103 1.0339119469311209 4.918660018181485
Ar 5.001658357127438 4.874157590119238 1.6938401008698862
Ar 0.05920490011068642 0.7408012034932964 2.3740498867511683
Ar 0.8722726605073063 0.1395817557371463 2.6095099258867553
Ar 0.8451799663234157 0.6227376444169975 1.695507783387756
Ar 5.0308794874909175 0.07067204636507633 3.2844096004289978
Ar 5.031079294557004 0.7287614175674066 4.322073864929069
Ar 0.9467820390022946 0.07524129256826055 4.132826666379218
Ar 0.7447223720506769 0.8727290912802952 3.3211736378715155
Ar 4.867921439231952 2.0118385981410127 0.19022111663965274
Ar 4.847196609334484 2.5338132670346227 1.0825260525051703
Ar 0.9539553359837921 1.601423174316411 0.7963351813206306
Ar 0.882583393524109 2.2855573719002287 4.9679527287038
Ar 5.014275230197247 1.6302934192634793 1.6146276784347746
Ar 5.0315856501315 2.4850377913134554 2.3899813915452026
Ar 0.9288575428692737 1.7408721301040202 2.442859478786725
Ar 0.963515149449879 2.4152507937668326 1.6488990359423805
Ar 0.04523179119036423 1.565465541582669 3.2950359616832414
Ar 4.942607191293133 2.430323787747589 4.275042933979027
Ar 0.7554331430385195 1.549453955810016 4.07840648528745
Ar 0.6684211343125913 2.4126326944541208 3.4297182514572424
Ar 4.9925363851535955 3.395250743149868 0.07128314397501022
Ar 0.18644933988707152 4.206208645345712 0.9467059589847105
Ar 0.7565665077198199 3.323259477126401 0.8559224394251954
Ar 0.8245801560670644 4.125791850729514 4.982228543311482
Ar 4.899701557883206 3.337653484155425 1.6770689378515178
Ar 0.024069653732455107 4.188451162197929 2.5597726355468096
Ar 0.7619877306606312 3.2375351509335513 2.2607502437138964
Ar 0.9574429982831177 4.067216286275137 1.7156945926536946
Ar 0.1051796737525399 3.272740820612398 3.222668912341135
Ar 0.021476060536848533 4.37332575461201 4.0766614250642
Ar 0.725975755459437 3.2703471572748875 4.148751613888792
Ar 0.800254099977563 4.113139057857728 3.3871005168406385
Ar 1.753893782422318 0.03287682731645966 0.020100531579559863
Ar 1.7354720766099698 0.7062348481879194 0.9776982030245182
Ar 2.569997094206182 4.990995953806631 1.040408470972244
Ar 2.715007486502483 0.8877748689843687 0.04206300989998163
Ar 1.7514585820917523 4.924736257384669 1.7390367364963903
Ar 1.5634636998787605 0.8394176581032429 2.429642844013241
Ar 2.547475993211972 0.009072340185635536 2.494537280982407
Ar 2.4228057075022527 0.8353559642575781 1.7660966160843683
Ar 1.8322650487481225 0.14464454253258516 3.4109565674572937
Ar 1.7555891356843683 0.8698560374812477 4.298533222178135
Ar 2.5131708050820736 0.1344438175750661 4.249003219934339
Ar 2.5206548343943522 0.9920677365106563 3.45093434738495
Ar 1.720664364873309 1.5508978978865464 0.05617912058301747
Ar 1.713178261103332 2.525717812137879 0.7650712441527135
Ar 2.424223753218044 1.5559365429580643 0.9961267030103967
Ar 2.6837727492915224 2.721085139046994 0.02033145205340667
Ar 1.5496292744603546 1.4574782636653894 1.6253666811743712
Ar 1.4531825894873671 2.564142638021062 2.6988186049150835
Ar 2.2712248188901194 1.7576033733067091 2.414613567308915
Ar 2.57702484435672 2.633188105115216 1.5286388868975886
Ar 1.500992362877333 1.646800127756175 3.303878530665813
Ar 1.5124702226891795 2.294759811485752 4.208113998950344
Ar 2.672289874355421 1.6395046809751863 4.3239322116003605
Ar 2.3893575836941 2.342970335592841 3.6171303936798154
Ar 1.3914992386808631 3.242736776303951 4.997185588462544
Ar 1.7477479237012365 4.26571376022031 0.9036203150389356
Ar 2.684714773835221 3.5571056830671948 0.8498875353226045
Ar 2.4273912633317813 4.166128152509666 5.024426662050349
Ar 1.7148593710794071 3.2357342079375986 1.6399113824897178
Ar 1.5976316817599256 4.380565168385794 2.71602664346255
Ar 2.5115353065173203 3.3849875102983904 2.558556351303402
Ar 2.400829261207769 4.007819822006189 1.7183321154426898
Ar 1.6332410508988389 3.1819564026481864 3.540091979339888
Ar 1.6727030908595992 4.1171724117971396 4.311603416260403
Ar 2.4773877781507894 3.269308049350176 4.270037120322443
Ar 2.466733365301375 4.039542950182683 3.4322904223930064
Ar 3.3683107852766185 5.007015964470996 4.9361771431138886
Ar 3.349926246011347 0.8448041610126296 0.7995044532248017
Ar 4.141338777751166 0.07293723289597558 0.8127554408864587
Ar 4.078594481829034 0.7061814816586336 4.993662300093937
Ar 3.4727091457558643 0.211116911350652 1.6787882095284883
Ar 3.1166695553514265 1.0468681854660182 2.416868977905351
Ar 4.195302331153109 0.11294490311898835 2.53645870365077
Ar 4.344758684694934 0.8050655006313819 1.576032118481202
Ar 3.5432619458069885 0.030949342296132904 3.3392110898031477
Ar 3.506679785760461 0.8313567853599173 4.211315504698002
Ar 4.331463674303266 4.96027055718635 4.147090731531426
Ar 4.253753553891807 1.0352583038359162 3.2931114075927503
Ar 3.4232879599671837 1.7356689496390338 0.14963345462575084
Ar 3.814744470779521 2.478419004483292 0.8375166098659764
Ar 4.22091719957878 1.4947135234613194 0.8061201537226307
Ar 4.094824251968248 2.7681763504577086 4.817511901381416
Ar 3.33798571090408 1.6715615895573366 1.516012358294001
Ar 3.1184862468737733 2.2960627045026243 2.7060201043333585
Ar 4.300068349345228 1.6087603453173271 2.419734357169915
Ar 4.091441342646612 2.464207314035692 1.8923627687711655
Ar 3.3694401416629347 1.6434704101944584 3.376491781666031
Ar 3.287516185762759 2.5735286810926454 4.115411415923183
Ar 4.212699033325372 1.7691256759327356 4.2096369746096425
Ar 4.160708094779134 2.5325777223604824 3.3250659022168296
Ar 3.343041625681344 3.56293865948707 4.844199696890041
Ar 3.380556327449378 4.338562365950017 0.7799726575236695
Ar 4.134696948317625 3.606917593114872 0.7575215700398943
Ar 4.192407626797691 4.340589647558477 0.026775880087392862
Ar 3.2937228905170874 3.387653672624119 1.6546357475236921
Ar 3.404119369355701 4.328162232813589 2.649949788857208
Ar 4.169419072766403 3.5837216770166433 2.494274740022819
Ar 4.091582307888139 4.259300271561171 1.6271293125752555
Ar 3.3683640217798585 3.3887274429654406 3.2832041895535338
Ar 3.571848819273065 4.298140279009606 4.11186897400638
Ar 4.372373678957056 3.4026296145079917 3.9838969937293447
Ar 4.255542435516783 4.229980217740082 3.2832449824774934
108
step=2000 time=10.0000 Lattice="5.038789 0 0 0 5.038789 0 0 0 5.038789" Properties=species:S:1:pos:R:3 pbc="T T T"
Ar 4.9371792084647455 5.015507294172635 0.046775164593597235
Ar 4.9730541828576955 0.7276807764287843 0.9026714400370656
Ar 0.9042785851533368 4.971684176545054 0.9819086657767859
Ar 0.7429007867485193 0.774240252898841 5.0072885377316805
Ar 0.02189260651464999 4.996866343162677 1.653057440200941
Ar 0.18784122357856423 0.8624742335334419 2.4265872268921873
Ar 0.7416543622554383 5.006925798816975 2.4846404205663624
Ar 0.9529326704591633 0.8539186669145997 1.5631644315524056
Ar 0.045314550859632194 4.983635039719212 3.3622173623088867
Ar 0.1340591460306662 0.8085061134640882 4.048568134249337
Ar 0.8593485535737366 0.038850261934820746 4.273378189838878
Ar 0.9988291873013488 0.9102976482548902 3.315697048291047
Ar 0.24265517479382007 1.7723327063294174 0.0908362018609526
Ar 4.910451368534937 2.4336379626644082 0.881624735531234
Ar 0.9282232408435318 1.825344067825041 0.8851667923252737
Ar 0.9575368540886279 2.528599881906282 4.906286223415746
Ar 0.061243166868217506 1.6788827896376055 1.692411080301517
Ar 4.800860686518054 2.601681930576552 2.4123845623038056
Ar 0.8454555094948495 1.9079287764655521 2.530050736003849
Ar 0.6594115545606118 2.54566626945403 1.6256442877863908
Ar 0.12876365093153963 1.5360330654449164 3.3027148338980012
Ar 4.9733976988269415 2.528510581452814 4.312597300559084
Ar 0.9051113960719589 1.639521463293758 4.225194864277489
Ar 0.9553741565568645 2.5302708715294426 3.4030764647414053
Ar 4.914082865593865 3.1977965316651282 0.08544347105261554
Ar 4.938677234745003 4.157760626946471 0.9106924337588044
Ar 0.8022088674009688 3.1635606550648836 0.6890682081275978
Ar 0.7358351568747373 4.1487458297949455 4.978054593385223
Ar 4.847863052452483 3.3406861285678193 1.6949312255995397
Ar 4.89157523126102 4.175216572005465 2.584921300336137
Ar 0.6969683850904917 3.13651816263823 2.479684246893166
Ar 0.5828986503000666 4.071214290707075 1.8522361093435915
Ar 4.9135073807750915 3.4028861815068123 3.328711658457016
Ar 0.028474125835388952 4.246667307969848 4.162690772510105
Ar 0.9508923322721344 3.2818734991900316 4.170149833641135
Ar 0.8781761658012736 4.206279733423972 3.237165832822502
Ar 1.7001679480960774 4.781317764102173 0.021444340152522834
Ar 1.7233502270770984 0.7825328303330497 0.8101733473336031
Ar 2.4308578118520887 0.06500314904603627 0.7291078846777092
Ar 2.447719499274941 0.846251537887864 0.07521741596323858
Ar 1.7953232456544332 0.010735452430907943 1.6143501290320534
Ar 1.6294501236590313 0.9414656363242871 2.430340666114642
Ar 2.54847493998932 4.996763452494673 2.5304873314761576
Ar 2.482686584077899 0.9363537283714709 1.6478195182108732
Ar 1.5674111664376045 0.05766091009206335 3.272850387207382
Ar 1.6057373598226856 0.8761981414081705 4.273882282525062
Ar 2.4670421081390526 0.0303324384310584 3.958472880661301
Ar 2.329532101327382 0.9483926787994381 3.4053258240623916
Ar 1.5857864740435519 1.5806042107519627 0.014089046614518465
Ar 1.710460393184088 2.571105821086227 0.6565614182044213
Ar 2.35562719563156 1.6424629842139966 0.7591783628117444
Ar 2.623779641107681 2.389464755986751 5.032044454441346
Ar 1.55344844365478 1.9362882583916943 1.7137777627257933
Ar 1.6706230837860545 2.6062375533287034 2.429227743393768
Ar 2.62487316399602 1.6944795768424106 2.7056802614861493
Ar 2.799318331999857 2.632108091573978 1.7988091224726395
Ar 1.7760695899065462 1.8549855156372703 3.301233277471899
Ar 1.7043638982020246 2.4428090643124327 4.154454669242442
Ar 2.542582784318388 1.7970434117059244 4.121661930547503
Ar 2.4516695165734244 2.5621045642737226 3.2320554610707264
Ar 1.6256202103919686 3.50124477684181 0.00743187017677578
Ar 1.5402893188091913 4.205525905158913 0.8668175707156683
Ar 2.513273577219652 3.3428913805926728 1.0735473914249083
Ar 2.6273724729697667 4.184993980020045 0.21536242004588255
Ar 1.5670158774687786 3.387687619476431 1.6422367761907477
Ar 1.528774896845294 4.2146313075433754 2.3474007131293284
Ar 2.3371019277461684 3.4776569531412442 2.54915159602553
Ar 2.3543460727036765 4.153926308062439 1.7200907985320124
Ar 1.723904944701207 3.3859329228405572 3.4371747002832693
Ar 1.6504548641748107 4.273809851650109 3.9531094227897574
Ar 2.4894043576378007 3.1244402171019727 4.259180295787235
Ar 2.63458233621983 4.227191957132694 3.3661202026682058
Ar 3.177263820335435 0.03957675699243565 4.824504908949675
Ar 3.476039735778905 0.83488111870863 0.9471924214724979
Ar 4.182843259414397 4.97827168933466 0.8315379786807046
Ar 4.5483020221616 0.9454185746914775 0.016220095990717078
Ar 3.3458194631904705 0.04626225473408969 1.5984772124965434
Ar 3.326289645561521 0.8895632076830391 2.309674645052114
Ar 4.254084984690875 0.08835159152947311 2.4956580399892347
Ar 4.27598686986162 0.9078451695554991 1.7205521026286976
Ar 3.5218779400954343 5.005086472330991 3.3076739846059464
Ar 3.2986799755679312 0.7379452270142438 4.028346882548011
Ar 4.239359403177075 0.20654400549806565 4.148909472039964
Ar 4.336810543210924 0.8705428055024084 3.2508427616734235
Ar 3.499176191918851 1.3812718377904996 4.961960739104127
Ar 3.3988330873042565 2.456335822316665 0.9058617466544346
Ar 4.268265348255755 1.6634015796471495 0.8952940885332767
Ar 4.143969965549717 2.3086937243444883 4.965785845810979
Ar 3.2782822219598713 1.742456916359276 1.7173850267933248
Ar 3.514796288624495 2.5373979596113085 2.780854321303226
Ar 4.16557807765751 1.757029393975671 2.446975836630065
Ar 3.909150337420615 2.6233803466105274 1.7715100717324783
Ar 3.529930879534492 1.6647609979931481 3.2510768726957693
Ar 3.433768421277811 2.600556636250139 4.097413009755716
Ar 4.354718653955826 1.4934772813655204 4.145122955159336
Ar 4.349080340504789 2.442094935359612 3.483059543415326
Ar 3.4895123642386543 3.152942743912381 0.05907226383325838
Ar 3.3117246205577215 4.17591015542242 0.999825458730669
Ar 4.037357291607935 3.318277869722478 0.9788882722246112
Ar 4.290245345548668 4.078387973686821 0.0974678614599505
Ar 3.226204877828559 3.52854827593241 1.8525361953467634
Ar 3.500788618132461 4.269268754580462 2.5119425131335573
Ar 4.047025852610356 3.3985753661821754 2.646447830893165
Ar 4.153525302275163 4.152162056741372 1.6185657406717273
Ar 3.3565830341852805 3.5126051074798745 3.5578815882943733
Ar 3.406063862990752 4.107275493575855 4.421717489360516
Ar 4.416114350579361 3.469391349140047 4.236712130831078
Ar 4.301893121558851 4.2392543530956655 3.5004968405356167
108
step=2200 time=11.0000 Lattice="5.038789 0 0 0 5.038789 0 0 0 5.038789" Properties=species:S:1:pos:R:3 pbc="T T T"
Ar 5.025369285050454 4.982035154676477 5.005836080739974
Ar 4.993789748847666 0.8418140110338895 0.8648346591714788
Ar 0.7742395740788891 5.013543026434008 0.9236014441328122
Ar 0.854280939704933 0.8514310556489358 0.03074235099020379
Ar 4.82056677366277 5.023331133796446 1.775156034981592
Ar 4.967264244386778 0.826157857037338 2.446371059605521
Ar 0.735408442514382 4.944377368469142 2.4500489476489467
Ar 0.6595805302965749 0.8111959142609397 1.727707459099281
Ar 0.0897131017863641 4.9804927537772725 3.654651974006891
Ar 0.03588413081531312 0.8247120269912582 4.3943969449512545
Ar 0.9377669858165371 0.08566587414107327 4.258953314252266
Ar 0.7841718608542664 0.6027314158956646 3.2050542125232155
Ar 0.20774541382993486 1.7975239416855915 4.966071314903033
Ar 0.03831345554100957 2.508707247888024 0.7434850524833986
Ar 0.8005958888999154 1.7179610640096272 0.954493640404206
Ar 0.7818587302306991 2.7412288574193067 4.940641808619436
Ar 0.07561792126683765 1.8053059390979882 1.7120123418018756
Ar 0.10672676860574079 2.466644823907748 2.816167132237089
Ar 0.7757935479577718 1.5912486907386278 2.5105499853914055
Ar 0.789402163580578 2.4798242576051983 1.785996007066421
Ar 4.9415663784872725 1.587135617476101 3.2430017361132206
Ar 0.01265295438010971 2.3908243040935537 4.156002231137379
Ar 0.7573227767040902 1.5655725890577326 4.051861449166779
Ar 0.9791779321903018 2.6877895899271973 3.4794759858138993
Ar 0.008817161348252774 3.4274463447638723 5.036549935517711
Ar 4.892301226290707 4.240803555427595 0.7954377514755698
Ar 0.7928912823320164 3.436603118671108 0.7818718469163184
Ar 0.8348087340405829 4.264333052362328 0.11790175070274282
Ar 0.04342904448037523 3.298866852088958 1.527006292780148
Ar 0.001623732199306432 4.149425612963489 2.428190483629846
Ar 0.6914004386375661 3.3709997796733027 2.5067069772825463
Ar 0.7233800628841829 4.2289910428949025 1.6863190923825797
Ar 0.08944763677079877 3.3234109061165045 3.4649288753755667
Ar 4.975219406724711 4.200967259725416 4.26572926404937
Ar 0.825663291679892 3.5604555585347573 4.264922666422161
Ar 0.7624114161537389 4.284846789798232 3.2972004350137643
Ar 1.687308513723055 4.962583197714489 0.15680583194406095
Ar 1.7950044068641027 0.7903338572453865 0.776034690335792
Ar 2.506502356830642 0.006251919128759346 0.9236926016062488
Ar 2.530224870893247 0.707139844903187 0.0004205249713891135
Ar 1.770945378050623 0.13016554872061328 1.6368133666530458
Ar 1.7298757733826478 0.7247894665384081 2.5160577193247895
Ar 2.677161141881414 0.024244773673939127 2.487732263686924
Ar 2.656471298349947 0.7708983111749101 1.6440356516130425
Ar 1.8256755628622796 4.96357261253534 3.258889869866981
Ar 1.836022734303911 0.8425548593245584 4.245459017030295
Ar 2.4788385397394057 4.693969795482942 3.9975918671381394
Ar 2.6442737009251247 0.5944530191122371 3.395961053265501
Ar 1.53237889729621 1.6611553004532575 0.045893819073414464
Ar 1.5334967090687857 2.600546173064075 0.8928468082300958
Ar 2.5952370158556026 1.5302766076778975 0.8700082593736468
Ar 2.4434862288922803 2.574562618811417 0.2285222745824173
Ar 1.6624158033282328 1.4487686238334736 1.7515596680969894
Ar 1.4725228553998113 2.6169438409888905 2.4961688259652717
Ar 2.3662419510342962 1.9939444890554185 2.4138025048533107
Ar 2.683262523587067 2.550206403752137 1.5481352056684863
Ar 1.7480410747525588 1.499903142228564 3.3656822863565954
Ar 1.7543323584242658 2.5388242416503677 4.310510945773701
Ar 2.5843278090016617 1.6730504862807982 4.417936916621405
Ar 2.3193349191942114 2.7670273876217957 3.2324942791744187
Ar 1.7537887855783072 3.4983063136943815 0.10529036310107759
Ar 1.7208870267889156 4.202774023743578 0.935832479935827
Ar 2.4909982734277425 3.323687595789326 1.0397778936037754
Ar 2.557724950455229 4.193759358111493 0.18180947092243255
Ar 1.5909264782346872 3.3136021897232397 1.7177576642070673
Ar 1.5030282780636883 4.2565286923389705 2.398809514135915
Ar 2.471537278464844 3.2828191960106836 2.311556453064675
Ar 2.6432382545769086 4.351361917416675 1.7677060094059898
Ar 1.6427210393920324 3.555319288855471 3.2762006381965008
Ar 1.6041920354334307 4.189044151914779 4.17568050458773
Ar 2.4976405312286794 3.4240344936652827 4.05318096339951
Ar 2.5598898524939453 4.06265035346763 2.9913436671725653
Ar 3.303874243730246 4.955103869760886 4.882931926926846
Ar 3.5011703139840122 0.7401659862427334 0.38329840718662694
Ar 4.126561754978871 4.99525453048279 0.6059119093336003
Ar 4.36659398341608 1.1747901403422403 0.10292157177339059
Ar 3.484083932470042 4.981155308633831 1.747204270795209
Ar 3.35673731721717 0.9154766553801492 2.5388994325923706
Ar 4.112675920637625 0.2126977988984513 2.5507444322372232
Ar 4.039091411623464 0.7764015297214291 1.4930174996867334
Ar 3.399660878494552 4.931892155681096 3.335681171094539
Ar 3.3537349762201787 0.9909022913307906 4.294235996454787
Ar 4.054695992586181 0.0734101852747907 4.216174759081769
Ar 4.219460607908253 0.8495976564619381 3.3305523527485525
Ar 3.38320185198706 1.9199720413140942 0.2265925118591738
Ar 3.4911482311172732 2.6756143465939988 0.8997636855441903
Ar 4.208157048975211 1.7511991470633839 1.0278945189209439
Ar 4.322312690694097 2.4350747521301352 4.876869091583024
Ar 3.3428333780035566 1.654656243098392 1.7454307708821346
Ar 3.462536798190742 2.584437383080515 2.5260314561881456
Ar 4.161505223721676 1.7100805079658274 2.55580011498147
Ar 4.233610760348227 2.5120470422644283 1.660601646441924
Ar 3.380324883752014 1.7932530316556181 3.3265358560046874
Ar 3.1140600290691225 2.4834937088246662 4.09555784537134
Ar 4.3779522549143515 1.587771389980462 4.139341080249334
Ar 4.036110077150954 2.6113897952786402 3.436129042728479
Ar 3.342622790938224 3.14661311489117 4.834636817359243
Ar 3.3041282507542875 4.048452819871501 0.9504763077610021
Ar 4.328010255965901 3.32464457204569 0.8198398294967704
Ar 4.036620480837411 3.9979762529109837 0.09714295116954404
Ar 3.368273986209839 3.3020676773246174 1.7178326903218402
Ar 3.549506137420748 4.1736224683430345 2.489090726256247
Ar 4.322607710183338 3.3778675368753444 2.4120514280850105
Ar 4.178972161828962 4.121443702654951 1.5951454473643636
Ar 3.2898972073101618 3.4688288042905837 3.380178902832754
Ar 3.48525163876703 4.228115591310863 4.1846951645971675
Ar 4.22718996866155 3.2827314839714 4.315625940828991
Ar 4.295672514791533 4.188288720663197 3.384287887203102
108
step=2400 time=12.0000 Lattice="5.038789 0 0 0 5.038789 0 0 0 5.038789" Properties=species:S:1:pos:R:3 pbc="T T T"
Ar 0.16098800783377426 5.009508159516204 5.014444579377386
Ar 0.1274974601067436 0.730011778191518 0.7033873497816353
Ar 0.8878708193231956 5.0194765412323425 0.7223612872524133
Ar 0.9823955627347807 0.8418257441174742 5.028598409843729
Ar 0.1518492705025372 4.928296881719585 1.719693461017128
Ar 0.004146491080346169 0.6616909081380945 2.654524416491871
Ar 0.8912213681744297 4.894411050141557 2.6483849613505144
Ar 0.7574176683931629 0.9126871956436848 1.632507942637173
Ar 0.1033577518340472 4.962755402070245 3.5027033478824667
Ar 5.0383634386421 0.752621899794821 4.191812792575216
Ar 0.8655713812317734 0.08127259805925612 4.19409824319072
Ar 0.7211806566562428 1.042813576559849 3.4245283392325803
Ar 0.027355512836818998 1.515216115152549 5.0075741852439535
Ar 0.013752093510575563 2.560558842769763 0.7725382405160328
Ar 0.7223804682686394 1.762786383996454 0.8939394047227718
Ar 0.7932121729718256 2.571285547505942 4.998825237397886
Ar 4.934006401830983 1.5628880545439305 1.3630317588878456
Ar 0.02593254180996144 2.58166298550676 2.4710094871164956
Ar 0.462064871432296 1.7429195811091869 2.532194280717625
Ar 0.7041455626060619 2.4006825904421736 1.7368833355537323
Ar 4.902232596422521 1.6517949044590583 3.4158018741709752
Ar 4.864351510265222 2.531703221982524 4.217817278063897
Ar 0.8486779066460097 1.8421650941635503 4.129974707341608
Ar 0.7497515973451938 2.5050720134409405 3.3326251850940016
Ar 0.06298381945125277 3.3401022376916605 5.012503782870343
Ar 0.11066574153437922 4.259874336691047 0.8766607455902199
Ar 0.8375967975568727 3.5639950933735696 0.7050531779009321
Ar 0.8209135991912218 4.2303478904856835 4.938078120554495
Ar 0.1170404111262726 3.359167466351791 1.5781963997797137
Ar 5.029586799645343 4.401737581448099 2.646430457035264
Ar 0.801801039755231 3.246668402286686 2.4360896471633233
Ar 0.9284365942503277 4.124626057626833 1.6950756795947772
Ar 4.92694904482274 3.3150241845809845 3.4668960340745403
Ar 4.974140301652377 4.151962931005425 4.197738334576943
Ar 0.8522252198592598 3.3722002561324285 4.209460323230982
Ar 0.8581077000945806 4.0672833025402815 3.2802725754393696
Ar 1.8780504170098458 0.1933463402478957 4.9502677804372786
Ar 1.7151081862097162 0.8878381284444092 0.8837748038717296
Ar 2.4883325763750337 0.10103716986211184 0.7560950330695853
Ar 2.3874325134119827 1.0419928201754833 4.902842679525289
Ar 1.6163532019196623 4.987234214950924 1.792380507686938
Ar 1.4343588119330128 0.8155298443627909 2.5895996038430193
Ar 2.3620660848677195 0.13594570920449814 2.5511646408709177
Ar 2.604671308164689 0.7816151826639893 1.6488527979564933
Ar 1.6767303925995203 4.914375799715715 3.4023724274652327
Ar 1.59946512350296 1.1019713015075383 4.269521540736825
Ar 2.523800917736455 4.818015347909829 4.19431172793692
Ar 2.282966371641915 0.7171163918326064 3.4656779543985197
Ar 1.6005825415996444 1.905697990130499 5.023137697298195
Ar 1.7144510859958086 2.5708205926795795 0.8841157432630399
Ar 2.446586543227866 1.6549789766462 0.9642364114158994
Ar 2.3261481002237097 2.643080307612172 0.024580801259752493
Ar 1.6246788062974988 1.5930327123417303 1.7764260730180197
Ar 1.599664929716392 2.347709497591142 2.418503819298693
Ar 2.5230785676976297 1.5175711526020035 2.527692212949589
Ar 2.5135782537236935 2.506068837720134 1.585140855500352
Ar 1.7177317797310296 1.8042733369318593 3.2947081308347794
Ar 1.6123484360898468 2.674218730529849 4.189292646863134
Ar 2.4402897141325646 1.9474783772016535 4.294418102026845
Ar 2.6948348820743417 2.5543458135916057 3.219675693388897
Ar 1.7326686405743406 3.535939312391866 0.13816869516695224
Ar 1.6763095986163201 4.250532079802596 0.9304262289636926
Ar 2.5842828488273244 3.3089582367418653 0.8043723385274718
Ar 2.4878860995297143 4.265630258977765 5.00043832100271
Ar 1.845917443679469 3.377429711045919 1.7216144663988964
Ar 1.7386769778957156 3.9900074397524734 2.5015789585697363
Ar 2.6691503934192564 3.3044727286469957 2.3591695574757767
Ar 2.526695378203352 4.357905787323529 1.5902019925452975
Ar 1.5082291103421475 3.153331006586537 3.19462400606115
Ar 1.5537311312156272 4.2375392729331764 4.170675648989198
Ar 2.4549584499978288 3.4842263458088176 4.194414102544899
Ar 2.4740321086769077 4.193216225671037 3.3010160497967767
Ar 3.5483382382078816 5.0345134476704185 4.867729631372461
Ar 3.3482798130869353 0.7801746895306347 0.5658257837296502
Ar 4.193627312754991 4.971262116320066 0.7508592070317881
Ar 4.2929758921656775 0.8502343898644832 0.06919417701977361
Ar 3.553486146332207 4.826429815460861 1.6573267560792182
Ar 3.414565331805743 0.9289784075482302 2.4569585857307046
Ar 4.25659672348707 0.015788563230812826 2.8664719422494818
Ar 4.315608224083726 0.7508610904883872 1.8360230969013576
Ar 3.1447718261337587 0.05015997942111373 3.189086806172057
Ar 3.360293897729885 0.8840585877245505 4.242282445552846
Ar 4.263404855957726 4.923353099848976 3.9576442170812216
Ar 4.204692222372558 0.9298749396006658 3.5358354043930973
Ar 3.3695787682119476 1.7319415972918164 5.001333381807644
Ar 3.3491688119629446 2.593842454864475 0.934480440928999
Ar 3.9737386240750063 1.6460236381194746 0.8516818499190928
Ar 4.191437149537172 2.405171684965039 4.968345415816039
Ar 3.417968302057079 1.5987520162810895 1.6847609432665824
Ar 3.4162956981843853 2.243143551519614 2.5370279513761
Ar 4.35979346853503 1.7930205334278084 2.561090626567558
Ar 4.3171682831726095 2.5974586128187456 1.603529788738847
Ar 3.170189763802076 1.5598341129014903 3.3387194931094473
Ar 3.300370881730325 2.6461290135318123 4.320176114017618
Ar 4.272994538447557 1.6249999877800165 4.315536921449164
Ar 4.102568566422241 2.2957571085166455 3.428738971988501
Ar 3.379112131068611 3.4225828034361823 0.11892470546515778
Ar 3.263039896034091 4.407458487961331 0.6843058932281151
Ar 4.320117099132293 3.4396543454208084 0.886188517377192
Ar 4.378153449112317 4.244327986008736 4.993824536515215
Ar 3.3698293212256845 3.736177467361611 1.5739437975257622
Ar 3.379553407715254 4.089344851572541 2.6745184747490898
Ar 4.216161295860376 3.1198400599931775 2.647174874984295
Ar 4.41132074873674 3.9551531784995078 1.8697982278199985
Ar 3.4815290072484264 3.306658872264111 3.5230816474406486
Ar 3.4777473752641157 4.1286221993876815 4.295808412581974
Ar 4.181659781397609 3.437921869220083 4.291821990176156
Ar 4.324851094359387 4.067863373944834 3.3212694103121785
108
step=2600 time=13.0000 Lattice="5.038789 0 0 0 5.038789 0 0 0 5.038789" Properties=species:S:1:pos:R:3 pbc="T T T"
Ar 4.910784793653833 0.0994364143252315 0.1984789462305786
Ar 0.13916430249626122 1.0360014616524273 0.6781929194934047
Ar 0.7202162108688631 4.967825731615658 0.8782624367825403
Ar 0.7818986266587589 0.93498250477915 4.956269965721948
Ar 4.982196209152345 0.047972904672262486 1.6831528061334426
Ar 4.865588081576799 0.9646058623469697 2.3827597097234867
Ar 0.5788349484486511 0.10044024676583686 2.498848871655207
Ar 0.756415553938295 0.7004042585175556 1.5586441001257858
Ar 4.827382319073843 0.0660666141144985 3.2462216744607573
Ar 4.963274334674016 0.7695203018739751 4.106818403446388
Ar 0.8956124336988106 0.06593849765890186 4.24298785757157
Ar 0.5154702943171265 0.8351952484113703 3.2447726491856566
Ar 0.06451996377068717 1.819705901257672 0.04468942145312253
Ar 0.06264129586206318 2.4974343534703034 0.9543924543135386
Ar 0.9362776233453062 1.8079728803316124 1.1631751785320106
Ar 0.9435828351249369 2.481198595317275 0.11164661494040545
Ar 0.006243811864383882 1.6542823254558592 1.6622966821416227
Ar 5.038647709832252 2.3137439128755664 2.468861895162616
Ar 0.899257484295629 1.526898986217494 2.3303099973393873
Ar 0.8760825857927484 2.5849824874826965 1.8222347724351675
Ar 4.920741404770601 1.7705868259455815 3.390653989359119
Ar 0.2194736524622593 2.5289509738468356 4.367438781674192
Ar 0.6658506339702148 1.4540687899877671 4.107184788775506
Ar 0.9738566077013087 2.293702935689379 3.401842623061392
Ar 0.18052181081028912 3.180566723666487 0.18754504817713002
Ar 4.925804625211837 4.316150355504495 0.7870375838305401
Ar 1.1243831316298898 3.3714281602017064 0.7804602557795048
Ar 0.6872412710569922 4.256343155684411 0.14303077421447102
Ar 0.10556523683995979 3.4207292890412084 1.7372733455013156
Ar 0.1914767759303048 4.123772201925033 2.713460000217829
Ar 1.0475509316346334 3.2997776356303348 2.653385656829594
Ar 0.7743466722420377 4.117959724878205 1.4738219640006784
Ar 0.028284182489067146 3.0978501208622 3.3895929646106406
Ar 4.970716575394815 4.376397207156116 3.936878374666875
Ar 0.7752620806294827 3.554996390547285 4.267021908977
Ar 1.1150889364824657 4.16827691734533 3.239914187390401
Ar 1.5794613163050968 0.15815272485900916 0.21778935908003713
Ar 1.6973039537506942 0.9153330277951831 0.955101288340703
Ar 2.6625306848626975 0.020827896351804456 0.5828441502446925
Ar 2.503709379066493 0.9260327591864218 4.985747181292532
Ar 1.4918113372155997 4.871950003167568 1.7731551815147524
Ar 1.7834917862768929 0.7558884257328948 2.4825123580220647
Ar 2.761092591358096 0.020253835145487082 2.5361300599368275
Ar 2.5687601064611294 0.8293555178120322 1.5981590697690173
Ar 1.6298867803184796 0.09084414996380699 3.2125126546054052
Ar 1.7069960644106963 0.7619728184011041 4.185984179622205
Ar 2.4772390104621533 4.882855003614539 4.3631030730925815
Ar 2.5737043395460573 0.7938987415028885 3.2905020484271597
Ar 1.515163940807901 1.5640865419833538 4.987774629185425
Ar 1.6916237512927377 2.44930133822762 0.9092941723367616
Ar 2.657194628473486 1.863179557887532 0.6071507508390036
Ar 2.708132705484535 2.6391619512228086 4.948572841566084
Ar 1.8568089223496105 1.671277022771054 1.77293235814102
Ar 1.7338838028677546 2.394383184258049 2.6003560405866923
Ar 2.6078707675852315 1.6691393499757037 2.579788909548069
Ar 2.4701218354154135 2.6646517321354777 1.7038158109701187
Ar 1.570383592335558 1.4643067462753678 3.438857926145059
Ar 1.7034141481645284 2.4824044218103665 4.275933254705727
Ar 2.523921059305609 1.6911192163600157 4.181517295998474
Ar 2.4891697794226535 2.521500384754501 3.586019019396801
Ar 1.606828111102138 3.2807068400628294 4.903160907289345
Ar 1.707640844902832 4.317710832283454 0.9199821850675942
Ar 2.2921214936951 3.4447599915230604 0.8563197077285418
Ar 2.2331475184612475 4.225411153399474 0.04457812021723683
Ar 1.643950784479417 3.430038688597196 1.8436301253841096
Ar 1.8160197288067284 4.230857099855955 2.5297243514270735
Ar 2.392054593837897 3.3252896683370636 2.6563752674740453
Ar 2.5186849021219495 4.180355099183648 1.617578330585171
Ar 1.641001670364499 3.2422893502843873 3.553524886892794
Ar 1.7119722129726966 4.133513782679058 4.164422351348205
Ar 2.4837890990066813 3.4074684401920936 4.123073608177191
Ar 2.565726951341886 4.241613567389174 3.357274619481776
Ar 3.5159753753247687 4.938426858125907 0.03161061760904292
Ar 3.3351246773055654 0.9519694548146712 0.6079931312419946
Ar 4.102620267911882 0.1355657155181872 0.9749376096665919
Ar 4.295325213187387 0.97798438160519 4.990145755034013
Ar 3.2689700114698494 0.08170908965527215 1.6033779413726903
Ar 3.4844842103898657 0.9973813174734635 2.165479637951861
Ar 4.074384424197415 0.08633572782535745 2.3154439967539555
Ar 4.2023233709516346 1.0432173873138029 1.451917485919081
Ar 3.6529083464741565 4.87346315481209 3.3344118538241645
Ar 3.3181835913487445 0.8145703011420662 4.139052091303001
Ar 4.22046023693605 5.011478229585078 4.286889926532637
Ar 4.132350306037948 0.9151537770040264 3.346004367798854
Ar 3.5222701012005877 1.7622765384956143 4.914305811152968
Ar 3.3056085024192363 2.728919889967415 0.8914405901046413
Ar 4.30036685250076 1.8252817168076787 0.7507300364385321
Ar 4.251478379297619 2.410377615838862 4.861700543923331
Ar 3.100059394499593 1.793409162637062 1.4771241100559078
Ar 3.393140437603167 2.4057923010286073 2.5386495937004576
Ar 4.126946659457645 1.7499769611746012 2.5647382268576795
Ar 4.179220958778091 2.3475191670403586 1.6810924804049094
Ar 3.2878075822133286 1.7922496368530163 3.5482995946848583
Ar 3.332781382628544 2.7255467438300425 4.194166808063285
Ar 4.115331740559832 1.6536050182946527 4.096502636931547
Ar 4.007524922346323 2.561468945269564 3.414310932720713
Ar 3.317620732232407 3.4647781087576166 0.04843849440828453
Ar 3.4415276725281796 4.256938781431153 1.0039449372132776
Ar 4.113237253787541 3.24588599640094 1.1265855403414486
Ar 4.170096790598539 4.122370298856703 0.08460820129779213
Ar 3.3337922799167785 3.290779042287959 1.9760904579168066
Ar 3.3161669911264737 4.088067964684077 2.5247356621386503
Ar 4.249789980598448 3.0358088102472984 2.4908250475739293
Ar 4.2768338723236505 4.065271260398752 1.9985454602129444
Ar 3.354913726628165 3.3627392744945412 3.25062579346055
Ar 3.407244976010389 4.044169532698406 4.016351825055615
Ar 4.268973572612608 3.4019838122539783 4.112242773321126
Ar 4.271868068229023 3.8476875448627434 3.087716778476751
108
step=2800 time=14.0000 Lattice="5.038789 0 0 0 5.038789 0 0 0 5.038789" Properties=species:S:1:pos:R:3 pbc="T T T"
Ar 0.049627600784451324 0.08955471637574514 0.07960480555440819
Ar 4.89787820158933 0.7918417413084777 1.032027900125656
Ar 0.7589229722348924 0.05484639705656114 0.8708911716302208
Ar 0.8324693451738433 0.8751873979521754 4.994314999584174
Ar 4.856602277246645 4.789571609957445 1.4706430601300347
Ar 0.10262568159984876 1.0701250315170001 2.4144520744974236
Ar 0.8208014210196702 0.020446031458555565 2.6655873972472732
Ar 0.7618068621331943 0.7626354789716495 1.5695924451531122
Ar 0.04272239325297504 0.07235434066842365 3.542748832482986
Ar 0.11527661287274499 0.7743529497442715 4.309181327115414
Ar 0.8766144945996617 0.037400151387061896 4.167947691014391
Ar 0.7739678305057973 0.7609097812405172 3.4428643905283884
Ar 4.915793686021136 1.5285350860859277 0.28142177172318633
Ar 4.892598930820982 2.6056187815436624 0.8603232009457636
Ar 0.9917927075300039 1.5799787244076895 0.8270965473819653
Ar 0.6810133155603103 2.3927080215515004 0.1249555591910357
Ar 0.22258328124626175 1.7948046895771628 1.632641087396073
Ar 0.04682196320760155 2.4968048097163296 2.508520670186759
Ar 0.9722510175257145 1.6894501404888034 2.5236798799606994
Ar 0.8906885632114176 2.5978079030111254 1.6034260722830957
Ar 0.027270738806317422 1.6738062743251525 3.2906382728599124
Ar 0.028508166049874988 2.446917546973817 4.250518788104115
Ar 0.721169182077184 1.6260013577400996 4.055077139170381
Ar 0.7424114954478459 2.4766549525126065 3.278449671232114
Ar 4.929145487963566 3.3055386537670195 5.02039241134625
Ar 5.001302200929575 4.205296321563745 0.5289065622051423
Ar 0.6503864820243772 3.448449760253802 0.7820626580067918
Ar 0.8043958423480483 4.463609205380821 4.9288045832992315
Ar 4.80807639146518 3.3510600545992686 1.610164635763994
Ar 5.005555813453548 4.330331109871157 2.4811526051146
Ar 0.8283273413750024 3.383453953968686 2.428171983963523
Ar 0.7379448232225552 4.284827102429515 1.6819813116453208
Ar 0.16373225339809905 3.505883359881547 3.4503420018824777
Ar 0.024158999811531152 4.261021230552567 4.309739367969674
Ar 0.858164323500178 3.3939181040108353 4.23054011114898
Ar 0.9302692800781258 4.289317386539687 3.383097337580803
Ar 1.664253359822807 0.003427367356286288 0.04177238407816775
Ar 1.8037533860197787 0.8784547767845448 0.8868661107006188
Ar 2.572774420499325 4.979020629855306 0.9172125195430033
Ar 2.6320298222326546 0.6933831544869286 5.02976127522692
Ar 1.696817509216648 5.013448776872202 1.7371452582849187
Ar 1.7872723205397418 0.8973986647168086 2.5277152240344205
Ar 2.435390397813254 0.0035575325687257084 2.5464760434352685
Ar 2.6562649165924324 0.6804475794178924 1.6243820258756323
Ar 1.7486029275007222 0.09171994517307627 3.311147352842562
Ar 1.7453354308837024 0.7263058895753834 4.0987033023920905
Ar 2.4594906801129435 5.007662425843235 4.3169953393650164
Ar 2.5730627640993333 0.9254609146636079 3.3378837611553163
Ar 1.623072473120212 1.4516312862025906 4.844712343346798
Ar 1.580960302800232 2.487825562375418 0.8862858491078945
Ar 2.6672864352442835 1.6064644316151067 0.9295419440614914
Ar 2.1931800963582138 2.4018216466573175 0.01753763184113799
Ar 1.9236082883745553 1.7339592891549267 1.7583979126500136
Ar 1.5380063699283035 2.5567256763321105 2.4481599128398974
Ar 2.383286110256307 1.7512185664100983 2.655375874087879
Ar 2.517327990519822 2.6878852815265795 1.713142666209284
Ar 1.6675174114354128 1.6471020879814284 3.527035469440587
Ar 1.492417531706867 2.510782597807973 4.006258909186106
Ar 2.6202962411154904 1.70298972046952 4.318104799348894
Ar 2.6362121355511157 2.4912399977459128 3.657988742081999
Ar 1.6561584567361893 3.4281869231957147 4.925475921296547
Ar 1.6118842010691738 4.238767765765043 0.9550817791359673
Ar 2.3673009502706277 3.247528249799681 0.7152050832377004
Ar 2.403882196763826 4.284335984325166 4.977386568223446
Ar 1.597300017336733 3.3974315542174356 1.6867306111218763
Ar 1.5995951663015933 4.2023303902079805 2.476970165254327
Ar 2.3317304027687595 3.392941242288507 2.599489528895194
Ar 2.485484137054453 4.351244637546347 1.666053289955181
Ar 1.4628368646091878 3.388313329961161 3.3691163232930004
Ar 1.6357935604726397 4.314508113274166 4.215483988098073
Ar 2.697001683842701 3.509916863604157 4.354870901651444
Ar 2.396264384730513 4.096636830897894 3.355686521860119
Ar 3.3670826114514742 4.894774200889494 4.829444408701447
Ar 3.4447651316265264 0.8068094024982336 0.8929743143240519
Ar 4.217259306634389 4.896298021899403 0.5964484811946916
Ar 4.361724648153106 0.767807842780559 4.953525358442555
Ar 3.5244042881118993 0.07206928301761222 1.762921420739786
Ar 3.3921036094676196 0.863431907235903 2.590595596201518
Ar 4.228751190301981 0.03556237106278636 2.583629077139176
Ar 4.368990256261365 0.775108411606582 1.8405417936025725
Ar 3.345924017032719 0.07657798262528218 3.3465520679242045
Ar 3.4150199234684195 0.80057797903759 4.221182794700584
Ar 4.316544780678934 0.09586625953149201 4.189048994471426
Ar 4.319518085178665 0.8535518926462728 3.2460923475441392
Ar 3.640041881546717 1.552626586751069 0.06451518047295213
Ar 3.316465938235346 2.557354362805053 0.5659136529712212
Ar 4.164727365650982 1.663247729754783 1.1085176767894178
Ar 4.310908094195182 2.357102605881436 0.004808113559291449
Ar 3.24974463382525 1.6265279438495606 1.8112353235505285
Ar 3.1756725559731627 2.513921361271309 2.5310551967457235
Ar 4.061629232376289 1.6622259638171746 2.4314459946346907
Ar 3.9138882125544203 2.661199383813411 1.5207401440756099
Ar 3.2686245896625357 1.7008949477584043 3.360255003245799
Ar 3.4582611891535198 2.3425027864201358 4.373946434922827
Ar 4.296230258765335 1.6429273019038253 4.200606359531022
Ar 4.295151219402079 2.4015082195234374 3.41357832775324
Ar 3.6567600277088856 3.2206332622882736 4.782485792448188
Ar 3.3360982389511094 4.177408890679651 0.6265183876909419
Ar 4.070847113674796 3.334757230260293 0.696605724515594
Ar 4.194753461437527 4.135349861837417 4.964242489350874
Ar 3.2968806407258553 3.519921276970747 1.8173989344094916
Ar 3.3812856874351764 4.349958927506379 2.6522698038664747
Ar 4.143052736815501 3.108895975673643 2.550860577389153
Ar 4.076167786019112 4.145354465540085 1.6700941614752634
Ar 3.598070197803685 3.465062201249114 3.401706564510625
Ar 3.4889788641340047 4.193877282722614 4.112226853274871
Ar 4.464428998242534 3.4038365198753753 4.090007212367765
Ar 4.267908333374493 4.289590793472375 3.3000559291397114
108
step=3000 time=15.0000 Lattice="5.038789 0 0 0 5.038789 0 0 0 5.038789" Properties=species:S:1:pos:R:3 pbc="T T T"
Ar 4.821327220361933 5.014497431999917 4.904055206092366
Ar 0.16855520755046113 0.7568186599650512 0.8259909234738004
Ar 0.8867736484650359 4.931699414506094 0.8407736686381205
Ar 0.8128751750645179 0.9840518328079257 4.998638528033201
Ar 0.14586752638405637 4.843346797172915 1.6477769387852903
Ar 5.013131268591938 0.8674484587035516 2.826478293169975
Ar 0.9393234597197861 0.15060062082713738 2.500665996404889
Ar 0.9983527997633218 0.9311226701008467 1.7565808356276267
Ar 4.995655046076584 0.03710045790875271 3.526544200967346
Ar 0.04902458134502243 0.9729589772890335 3.968828853732346
Ar 0.9985495089049081 5.001776661720857 4.1793486634880255
Ar 1.0827250234319175 0.8228913599729089 3.3456439983755653
Ar 4.700711848565352 1.6341440976359327 0.09741529587620318
Ar 0.026275389351738263 2.5548242570183324 0.8772023274661718
Ar 0.7429611319125957 1.6494336696764857 0.7226202947341283
Ar 1.0073067560742508 2.4958149590782073 0.07607587823013487
Ar 4.977838741888821 1.6900958366856913 1.6367381367585028
Ar 0.09300885097234488 2.6519698080391354 2.3673672472671954
Ar 0.71105479456732 1.6850832861384681 2.4661475874554295
Ar 1.0528061728098994 2.620986893623922 1.8960844698597612
Ar 5.0062787991351865 1.9277057508208246 3.2539886866434236
Ar 4.886840913083863 2.524624779537784 4.320798605150678
Ar 0.8306695079126025 1.771816278102373 4.101876878115136
Ar 1.0379997762266648 2.435218324894582 3.3445812070709793
Ar 4.929860405205746 3.391902696134721 0.04902598399328789
Ar 5.010086443423608 4.223793689191533 0.733149161351877
Ar 0.8806269610738985 3.6089917063105297 0.9122716279425961
Ar 0.8524886126459985 4.2392126000125945 0.0005408524387845656
Ar 5.010157274631564 3.4103433514304173 1.632523470806308
Ar 5.014775780353501 4.188148701197912 2.418184160322193
Ar 0.8990002338889446 3.4171917650990067 2.5590360454861143
Ar 0.8057701049700504 4.114079418031388 1.8378361332428654
Ar 4.952832136638885 3.30150648453883 3.227096809392912
Ar 0.08786173573086467 4.190883694130946 4.2051786099157855
Ar 0.7410126942856616 3.235008787441513 4.373872727925824
Ar 0.7117836188132899 4.378823893183552 3.3035623837221713
Ar 1.6568031325550228 0.1502302651549626 4.9315205353825435
Ar 1.6505330050916691 0.8748689587761069 0.9097683584989635
Ar 2.637413008256406 4.87532693363358 1.0313182807151504
Ar 2.6842869377362337 0.6251321530032593 0.17482493092672544
Ar 1.8017554348965217 5.0008157529538515 1.7372678543571143
Ar 1.6536753313892978 0.847024863290304 2.5602791722808482
Ar 2.5559307553529265 4.9959703314046315 2.547778261045998
Ar 2.4566511469594894 0.6982113006489643 1.7668285213037744
Ar 1.7230153426665846 4.845677036434633 3.177197242435491
Ar 1.8011474603943112 1.0977188614436013 4.011842878817914
Ar 2.6107620353697167 4.88341960198965 4.165539873063843
Ar 2.45675440915138 0.6226198517451782 3.285292300868698
Ar 1.7246633705097731 1.705377541889214 4.95042391122862
Ar 1.54435931887459 2.278568416704961 1.0734946856928833
Ar 2.331429975184906 1.673127260224545 0.7547127520562312
Ar 2.39159135068427 2.6796687793601133 0.12465571980747996
Ar 1.8163839884035944 1.5986277902831996 1.7827660060866
Ar 1.8280964071889292 2.6540583854720534 2.549467905181389
Ar 2.722513066082877 1.5306731339831374 2.559505725323042
Ar 2.4189189782864404 2.475435150315997 1.507179239280138
Ar 1.7614015597299046 1.7024363986385571 3.1026457610902183
Ar 1.5712010929033555 2.644046826106417 4.226751581387791
Ar 2.4481794161069317 2.016882765040531 4.260222632135036
Ar 2.475017359486509 2.7757798705064083 3.2872378736433854
Ar 1.7252620733230595 3.5068527457487093 0.017809469785255324
Ar 1.680372247454737 4.271286402610904 0.7469016705028937
Ar 2.5527878655765517 3.5377788938003274 0.8755185255271095
Ar 2.5373137653785163 4.34121398449265 0.042784158050969766
Ar 1.651563070937715 3.4212375267917388 1.6369286027271914
Ar 1.770436170319575 4.012819823700257 2.542402768980989
Ar 2.6116164206266204 3.4355097631544833 2.4350352513856497
Ar 2.3964570127643543 4.192956827278537 1.739291158905293
Ar 1.5211305938037645 3.5185369358202703 3.4993104646814057
Ar 1.7077078135177537 4.247574159950281 4.3121521453156575
Ar 2.4974865578540553 3.25831346439157 4.21206144111905
Ar 2.500214280534936 4.038132928690721 3.289278486325986
Ar 3.419005875757401 4.88160832392717 0.055653841345241116
Ar 3.605197931882012 0.8478823439747888 0.8371336187280467
Ar 4.246913247804794 4.974929905116739 0.9243994027060712
Ar 4.204654346029898 0.7983883750823348 4.708610174369556
Ar 3.5042960498183238 0.08584431376717129 1.6915843445573486
Ar 3.37730280150189 0.7378811469474323 2.5894536484146804
Ar 4.3905200255060155 4.9505870001688965 2.4726513121708495
Ar 4.425115832707369 0.7131066728033719 1.7435840916997123
Ar 3.492620436920274 5.02074800005859 3.265093649736273
Ar 3.155871930936042 0.9648411389964683 4.339574015014189
Ar 4.142760905495065 4.773353339873682 4.145712804318958
Ar 4.089389522937256 0.8721650139254632 3.64460472180847
Ar 3.347801067491465 1.6166171519139543 0.015056695227684377
Ar 3.2086625433117857 2.4012989222906844 0.8284828190682111
Ar 4.054259401998983 1.8280716748754582 0.9671215130939379
Ar 4.136768637094167 2.4794434426092833 0.07118109474001441
Ar 3.0961104426399886 1.5977907745049695 1.5862634404995497
Ar 3.2057925847510114 2.436932801098271 2.4268086932791557
Ar 4.285011302331767 1.6981978841912506 2.462945873642158
Ar 4.212734840737643 2.543316642672121 1.761938676007938
Ar 3.4586984120351336 1.7225145430474607 3.2978244329449184
Ar 3.334127805175828 2.6063002913938202 4.270548345687112
Ar 3.918753380557787 1.7220245946633304 4.221470449287662
Ar 4.159234724140071 2.5029302770121316 3.1496281631986918
Ar 3.311673828312998 3.2841115564743166 0.15875318445817163
Ar 3.3730532373701396 4.158383426885962 1.1042434405104173
Ar 4.150128115437331 3.3885740003132265 0.9533627615799065
Ar 4.006653420132227 3.978876473510262 0.11481450511722208
Ar 3.2737948981386356 3.0882221305970563 1.5206580997861117
Ar 3.2909715184227606 4.187037353154028 2.338982569558057
Ar 4.113233183974366 3.471605084808363 2.346541841256245
Ar 4.280140151157736 4.2264036619211875 1.5898741716263944
Ar 3.388895332413181 3.4471673890970753 3.1890772279200346
Ar 3.184954881611292 3.96724490174698 4.201603282913973
Ar 4.148607753219412 3.370073376838661 4.138643243092938
Ar 4.460237451481289 4.254222188077591 3.243051724136222
108
step=3200 time=16.0000 Lattice="5.038789 0 0 0 5.038789 0 0 0 5.038789" Properties=species:S:1:pos:R:3 pbc="T T T"
Ar 0.008027431270437731 0.01203482784840493 0.06472477857832744
Ar 4.95561300192078 0.7050957864429714 0.7729660028828259
Ar 0.7690143288995608 4.949008277565572 0.8795537418412116
Ar 0.8003565940515218 0.7588228906632634 0.2759005499692033
Ar 4.881239168593644 4.971798913441199 1.5767171181037105
Ar 4.962418616640692 0.8906043159745222 2.363643069082942
Ar 0.924616595089834 4.707363650973777 2.4487237893958915
Ar 0.8637720709883422 0.874838912951638 1.7269648466627727
Ar 0.01828480276821226 5.029911718522476 3.1949505678508063
Ar 0.25073414174708863 0.9282576044732997 4.258695804863469
Ar 0.8095004719977102 5.0166971400034885 4.331942421725837
Ar 0.8072826990625739 0.6709627374541514 3.279153469138957
Ar 0.11007945644947074 1.580851408284159 0.07042403951870538
Ar 0.013817177758860955 2.534637228133397 1.0597798021327223
Ar 0.6866820689990683 1.7032731792681344 0.9678352404352669
Ar 0.8427957395272158 2.457006199015808 0.1814155584597236
Ar 4.766173454747324 1.667465406853495 1.5961155461998355
Ar 4.878541404450829 2.6006052879125665 2.2125571943520317
Ar 0.7129442052291106 1.949465348848534 2.4317828626488023
Ar 0.9828981479837575 2.5985053284865844 1.5762459540923552
Ar 4.988371164483067 1.6554663774729672 3.1881756085988355
Ar 0.13321111077450207 2.4572873285866987 4.223766309991885
Ar 1.1008376233913815 1.7386392219210085 4.396610879901952
Ar 0.6681752084076906 2.420504358820963 3.365944169356968
Ar 4.99282215002753 3.3195337038130166 0.19351342396065724
Ar 4.921864710305058 4.216125753023623 0.8659602986187817
Ar 0.8395333113964799 3.3567940847571105 0.8198435180000425
Ar 0.7390649735281419 4.219037028043187 0.03244367131426477
Ar 4.934100009340726 3.4268051415302194 1.5868527934167231
Ar 0.07359221919447789 4.105263429700664 2.4662546854297807
Ar 0.856120069947106 3.163746809025872 2.5543027693942677
Ar 0.7688580347970789 4.0084505328955515 1.6069653557867472
Ar 0.19650632841683238 3.406337298641245 3.347412996012488
Ar 0.011198848075823248 4.19179607996747 4.232238987477629
Ar 0.8869231323583066 3.3637880602997203 4.435608923503954
Ar 0.7833986633650838 4.22988439924685 3.3106158386443636
Ar 1.896851188713813 0.08672989459379735 4.989151058723034
Ar 1.748679848136459 0.7727750299353693 0.944560440149082
Ar 2.5387892674076498 0.174432207388099 0.9502191033412803
Ar 2.504371532805591 0.9531956281411874 0.19887529866984496
Ar 1.516283414471878 4.9587798126752 1.534198265062011
Ar 1.6707262084199221 0.7383675990963885 2.5150063818604855
Ar 2.3785378921384988 0.0070665294879534435 2.522101237578747
Ar 2.392615585279519 0.9050609346061077 1.7910769466202796
Ar 1.6403510011639695 4.864206372389209 3.356583175872027
Ar 1.553311719603746 0.6527752597580704 3.981557502353709
Ar 2.448148867145433 0.016294016067843576 4.107808118868945
Ar 2.3727363048306063 0.7726796202367703 3.406428609649036
Ar 1.5893581042748297 1.5518649019067896 0.2216077609106267
Ar 1.9178916929415692 2.670338174280679 0.8154245722614902
Ar 2.8004363792100184 1.817508863201622 0.8234838004732794
Ar 2.6848087192560985 2.590898661026373 4.968993070640285
Ar 1.7031092733296316 1.655066731151442 1.8212649281693054
Ar 1.7299352867691333 2.656821014654252 2.620130615344824
Ar 2.496102119746005 1.6069739900761864 2.572509973925299
Ar 2.545409585769371 2.400144629010838 1.7267021638038609
Ar 1.6093298453388754 1.6434265829585695 3.38852999124986
Ar 1.8094788158593642 2.570828744893382 4.47414041420514
Ar 2.4249951646564516 1.7036402802121668 4.278808259610701
Ar 2.571152527404199 2.7602166953641736 3.3572346297840516
Ar 1.7312423121072744 3.408755092290331 0.08272807780532591
Ar 1.6156886967659567 4.322598097489108 0.5816339150459968
Ar 2.620935071245455 3.5367752116037887 0.8263528654327076
Ar 2.6118069650919518 4.190802453831598 0.0024311154470577634
Ar 1.7886488465902712 3.4863143722942374 1.422029835958849
Ar 1.7065648846021313 3.9535517857326026 2.3199056809675667
Ar 2.475276487080953 3.2245759141951096 2.319408161758126
Ar 2.614257200182748 4.28976839757714 1.8522906353950457
Ar 1.6300162025892964 3.231032942222265 3.479762644445006
Ar 1.482120721085601 4.1436228823334265 4.298219005741074
Ar 2.477542826874342 3.5220192969374344 4.1654891821818225
Ar 2.3025357285508607 4.064421086438908 3.1238899242396303
Ar 3.2586377070320602 0.07144577243754333 5.0134457000877095
Ar 3.3921067145999086 0.9610718948438187 0.9542173128388759
Ar 4.041039728252886 0.1870492310773125 0.6399275463150237
Ar 4.304985304331129 0.9405508375071772 4.7621621692208045
Ar 3.3401928677017527 0.10540462250966842 1.707594213635576
Ar 3.483620040934271 0.6668551370481367 2.768149786714071
Ar 4.256887769771562 4.845949509212424 2.413314082560537
Ar 4.198474510444494 0.6870781071607864 1.6100253147348205
Ar 3.365944970899333 4.860810127738809 3.4179607539634334
Ar 3.4162997655908516 0.7661479762930216 3.9184711196361226
Ar 4.437164828076913 5.000065496814114 4.182201844341643
Ar 4.424056993314886 0.8055571794480592 3.496075422400052
Ar 3.473931169217537 1.7454565406480422 4.864904229372702
Ar 3.3149921095445354 2.654456928846345 0.7370121088612924
Ar 4.146256182197218 1.5557438481929005 0.7401957422745084
Ar 4.175828442959664 2.545056255093989 0.13505738896421315
Ar 3.332177385427827 1.3863659851727237 2.008769930713141
Ar 3.273280465553953 2.4985658033432903 2.585090793809821
Ar 4.112771469866893 1.7869833193695965 2.533134157005471
Ar 3.8699178938581698 2.537979671400821 1.7143953071022182
Ar 3.4143525711169596 1.628683107339757 3.235139144636266
Ar 3.503374360567526 2.5928040726342765 4.2047642147423305
Ar 4.462743300099696 1.6923588540089287 4.041179921515635
Ar 4.357072401405712 2.6608425029803286 3.2380879671155753
Ar 3.3772213918352394 3.4685041260120553 0.0025209371955066265
Ar 3.2623609549660704 4.369293166460012 0.9153979631755655
Ar 4.106044440151281 3.384651061024467 0.8403771528899527
Ar 4.008073786317946 4.292977188877368 0.1445142312254097
Ar 3.2862831690795473 3.5353432323870093 1.6243786178731419
Ar 3.3848032488686206 4.237717369034087 2.438313613815432
Ar 4.244888033191871 3.490647070698146 2.5038986639081737
Ar 4.113269769050521 4.19614586584968 1.6023189277175893
Ar 3.334986028280712 3.54754773944227 3.2583464678060396
Ar 3.374758607643808 4.232904783818774 4.291828631358093
Ar 4.47249892092228 3.1521238048441265 4.294331610991774
Ar 4.233870277467757 4.2512379116215495 3.3647857659677918
108
step=3400 time=17.0000 Lattice="5.038789 0 0 0 5.038789 0 0 0 5.038789" Properties=species:S:1:pos:R:3 pbc="T T T"
Ar 0.03391917335316695 0.048098053228217516 0.22002717286373644
Ar 0.04924563967305156 1.1319221523545502 0.5521922028858692
Ar 0.9546760700681217 0.010545661320536975 1.1212392328881278
Ar 1.0745203287080467 0.8046686531757388 0.1405355048096551
Ar 4.933113582772249 0.099074650006407 1.4069457961144443
Ar 0.035275020127026935 0.8503431827662404 2.4526785652548977
Ar 0.7764490093895585 4.948825139499188 2.636032354611229
Ar 0.6921726033314775 0.9294684475181494 1.5446334227740726
Ar 5.010803648197567 0.1592775945716549 3.3385831373915082
Ar 4.73261079295847 0.9232924226358755 4.256826954757856
Ar 0.7907126424944256 0.22631633935057494 4.416317521088521
Ar 0.8661123585467024 0.8954365519015851 3.3067136789527836
Ar 4.734431682138133 1.8883315240526535 4.968418877777468
Ar 0.20132826081230365 2.4839254102114796 0.7191523900941853
Ar 0.9233535668861308 1.693467935557413 0.7483370970637646
Ar 0.9942857537779387 2.7342226807229486 4.946435773367199
Ar 0.015022342445396734 1.7351528134049894 1.7418576259290701
Ar 5.037035211995014 2.5264675450585163 2.3476710841738666
Ar 0.7910976569026572 1.5610240894406884 2.489829177224154
Ar 0.8359612065384991 2.4663102228145894 1.518073562000955
Ar 0.05345517083361593 1.5550070600842816 3.224428740375894
Ar 0.21625922360578934 2.675286755673011 4.002476698202798
Ar 0.7452494257405228 1.6438076797889778 4.729509591237681
Ar 0.9515945081172555 2.185451128615256 3.3428842061972617
Ar 0.13959010418622322 3.4236950977223612 0.015484932979551065
Ar 0.16040652704131547 4.20697161027134 0.8502301529736616
Ar 1.0377900935995386 3.3574791135730955 0.8625249508244317
Ar 0.8240043336708273 4.219348250891115 0.0672059156755007
Ar 0.03978825208013678 3.402679763452347 1.7541175295187534
Ar 0.052316703589555785 4.353724838485616 2.235874262715794
Ar 0.8287024470874818 3.2553317806145436 2.4188428212262147
Ar 0.8469584779087559 4.070677214935781 1.6607092726448867
Ar 5.035848393093922 3.332492343436438 3.0510232397032397
Ar 0.012202685632151199 4.378595584745637 4.306560427432631
Ar 0.9640399941571819 3.449436509898712 4.180686640978107
Ar 0.6334129243247256 4.179603690367268 3.200296415524403
Ar 1.7186975619969402 4.988421841889092 0.15738092584866503
Ar 1.6400092955377652 0.7951928699681812 1.0939092228939407
Ar 2.5624334340639288 5.014811539291125 0.9130508267611893
Ar 2.337713462583542 0.8476087349207964 0.1856689680906683
Ar 1.7848091835472337 5.012463624546282 1.8127555034995075
Ar 1.5472347732861307 0.8583084929955781 2.4967894133510424
Ar 2.736225716888279 4.936738663723684 2.6988593269331167
Ar 2.552554539625809 0.6729424273529905 2.0530940456209033
Ar 1.5045849550219397 0.158033554995338 3.441123762185472
Ar 1.6247541372977867 0.9181112100739973 4.298414836567954
Ar 2.3449192608806153 4.89942061131671 4.172594486613102
Ar 2.4682333033509947 0.5863148136319425 3.390811654801563
Ar 1.760059824711284 1.8284171625002195 0.08797259872154879
Ar 1.7825517394793187 2.564939932289587 0.9724529250671518
Ar 2.3175806927231175 1.604233803087009 0.9616880711597622
Ar 2.4580068021880828 2.60301969314618 5.00743628936184
Ar 1.49231881119664 1.6684109967237701 1.6510030532475901
Ar 1.5850315945235347 2.4307892864623692 2.459151768340807
Ar 2.3894414586041455 1.6088073516388552 2.6236208033773294
Ar 2.4443147344588656 2.378986119490903 1.7333388256489826
Ar 1.7524912027642967 1.5211715334525027 3.443014459982609
Ar 1.6909096004470134 2.4234450139854573 4.175945139288707
Ar 2.5488052548057185 1.570120713710676 4.405992301071696
Ar 2.390152162699897 2.470469933984029 3.3249818898859695
Ar 1.7296838065822406 3.4274368550660883 4.888729339539507
Ar 1.775008066980297 4.261214909168896 0.9367920769468108
Ar 2.5035074679371894 3.4800289927760404 0.8943921052636745
Ar 2.455776167393644 4.192852197795166 4.878633935763117
Ar 1.7697993947042725 3.3817514871149816 1.6131464839800531
Ar 1.8562301815143596 4.128963933793122 2.675736281194333
Ar 2.745230993349524 3.4120898772998385 2.376008323363882
Ar 2.5921642982211455 4.392472614660102 1.774028427830687
Ar 1.640100247559154 3.1667625231230816 3.315501449499971
Ar 1.478917530078449 4.348655805043806 4.259250464195118
Ar 2.5515919292619897 3.3164665992245825 4.155552317177784
Ar 2.729202849358456 4.142412438742351 3.413344490341819
Ar 3.1351172754948395 0.30970829474278655 4.950263583634168
Ar 3.040711489929353 0.8526873097009381 1.062203601316453
Ar 4.093271817640823 4.934233287393111 0.5790904197143658
Ar 4.062825193440239 0.994368922378583 0.17557692671685846
Ar 3.5636074532524677 5.00129259215916 1.4729915321143339
Ar 3.450783533897601 0.7368720892087288 2.6425569692148074
Ar 4.274483567176902 0.038015371947541544 2.300867504383305
Ar 4.261664823312401 0.8912017198813382 1.6063122977593316
Ar 3.3890058358658273 0.003265189913959618 3.6650956578591503
Ar 3.605822460113634 1.0024058019067086 4.2362442418711
Ar 4.1866240346702845 0.07487835553688532 4.5428840206253405
Ar 4.162979656710951 0.7700770238363798 3.393607127338302
Ar 3.200578441477252 1.4921339214519536 0.1536419742814626
Ar 3.3085053305857026 2.5095534691228223 1.1146013803429848
Ar 4.131030832538546 1.7774307969332679 1.020074093661236
Ar 3.923219906118592 2.489864922867738 0.08367252912784912
Ar 3.302605697452555 1.5412421438372546 1.825571563199026
Ar 3.301166705352537 2.4807744992880307 2.3047081648342593
Ar 4.227048075166834 1.6980426001180973 2.3890720068207054
Ar 4.385566373048274 2.662427035747719 1.5247121171101035
Ar 3.249590502797933 1.7221189089267595 3.1199372238383485
Ar 3.3371357903296395 2.449880452127111 4.043415849808383
Ar 4.367408212443196 1.8087328049245412 3.911378400562908
Ar 4.280581393425771 2.5015193843309222 3.083199717629483
Ar 3.3735836092462996 3.385396654949342 0.0961344447075586
Ar 3.272958688840035 4.139087525947318 0.86797150075918
Ar 4.276463741392366 3.2293265090378744 0.6038211283352724
Ar 4.079536956728293 4.094933211611681 4.999933231822382
Ar 3.360963949389871 3.452200487865994 1.6292951221186065
Ar 3.3922177796477535 4.208980300620635 2.4460723981389383
Ar 4.088276074994374 3.352237380420563 2.4204831346298215
Ar 4.290740706248018 4.1472311700213496 1.4130538681490226
Ar 3.420886788805301 3.1058960186006175 3.2316618386762452
Ar 3.4979702906488535 3.901396964126819 4.057363836153012
Ar 4.150582344938139 3.1285170919742358 4.078049742754869
Ar 4.247909696993604 4.34981656522655 3.453962982010316
108
step=3600 time=18.0000 Lattice="5.038789 0 0 0 5.038789 0 0 0 5.038789" Properties=species:S:1:pos:R:3 pbc="T T T"
Ar 4.8875419808780665 4.928983785178148 0.06908022799620789
Ar 0.13432772697528328 0.6867180644372495 0.9099997984408376
Ar 0.788665746729835 4.923278455919448 1.2227311309947364
Ar 0.8091038649455967 0.5157038350279964 0.08666733045640491
Ar 4.946064453091893 0.13286627271049475 1.875927636665354
Ar 0.09152913459729521 0.9542513474918246 2.555047661064048
Ar 0.767541653900204 0.20060645780294212 2.674427866392757
Ar 0.8696519691949689 0.838483481580072 1.8152916956314686
Ar 4.9552551332550046 4.735240678197773 3.127663202735449
Ar 5.013025522395949 0.8182127451634151 4.141860315355987
Ar 0.6990369275708429 0.002083684406011699 4.088116617653114
Ar 0.8900589536963465 1.1342124118894166 3.2211560292630734
Ar 0.011525733789936744 1.6906624545210178 0.10704478435080145
Ar 4.958349081756082 2.316888639302681 0.9408371910155205
Ar 0.9742939868524633 1.469708905080033 0.7241550966679042
Ar 0.8696570733153809 2.363841038638293 0.12081327164234504
Ar 0.1573726167102665 1.59722682403654 1.685400827245971
Ar 4.845603657374936 2.29642031542125 2.3508310693761834
Ar 0.8272961869603341 1.867960319942214 2.457308372460922
Ar 0.9679105990892727 2.2923765658759674 1.4072609195200099
Ar 0.03234929113279515 1.7114882791758892 3.275510749069802
Ar 0.22935410573238188 2.3661238867895733 4.424281300552709
Ar 0.8869091561161498 1.5054258360641968 4.397118847763419
Ar 0.6630571524947511 2.6224439419783647 3.358867949482775
Ar 5.017289673654199 3.505553011098579 0.09331919871883289
Ar 0.03654125696681813 4.25683228595767 0.8669882769226281
Ar 0.7434257271472596 3.1177996834568757 0.7962180755622448
Ar 0.7193616918897725 4.218150333555814 4.964304398113245
Ar 0.02330477566417885 3.165870023487497 1.6568864049631693
Ar 0.4519327340547515 4.252914595030314 2.385557456612872
Ar 1.093421243608716 3.223305811027211 2.3112273367408993
Ar 0.9521980310962007 3.935218414573503 1.4567400418027223
Ar 4.9076835646247945 3.197826945766179 3.8327858786062823
Ar 4.986581234850365 4.222401433960466 4.095606829890734
Ar 0.857795080503456 3.1454660300939574 4.501634645830124
Ar 0.630233754144772 3.7227567097591554 3.2570277271926535
Ar 1.710407316543943 4.879141937319195 4.755689288798887
Ar 1.7199556984387214 0.7020649862463466 0.6267931998270916
Ar 2.623177686222414 5.0362514047236635 0.7908567902884082
Ar 2.526086448966923 0.8865365204589345 4.950736654736301
Ar 1.730185937995346 0.07020438651233495 1.592535687348469
Ar 1.7121517643281572 0.8599495727092156 2.3292219984053477
Ar 2.5233516532598093 5.0210747200433845 2.569997684273405
Ar 2.6527623575525068 0.903454040431941 1.5296697886967958
Ar 1.597731038969132 0.20136408431947195 3.259800780739579
Ar 1.7135395156076605 0.8688111339070987 4.131292320043201
Ar 2.556114470363864 0.17839680871058172 4.159880054822424
Ar 2.264842359036235 1.1237186474998573 3.2245001492694922
Ar 1.879924553076888 1.7054227608629526 0.04711680673421881
Ar 1.7600485999497768 2.7572843193657723 0.8668510980372249
Ar 2.6413528370469725 1.7335461248377282 0.8150759981328202
Ar 2.3179023678685207 2.524567030503024 4.661292182694555
Ar 1.6807984064415213 1.5007343503023693 1.369923780713271
Ar 1.976782133962741 2.5998590600836913 2.561888564105607
Ar 2.501326192746212 1.6502896273518153 2.336773797271794
Ar 2.5409711490111757 2.4750035485275492 1.6187924285251787
Ar 1.5555313129772166 1.9406635492649589 3.2550342971009014
Ar 1.4291087820304025 2.3294353526700404 4.164679095774007
Ar 2.5820318901738113 1.5503820197416505 4.224164441947523
Ar 2.4565041712384716 2.5771338169840097 3.5768838739940385
Ar 1.767642667449132 3.6171793256937392 0.06097722338670938
Ar 1.7911579555833703 4.486282445813325 0.7047438843691585
Ar 2.5080370007532977 3.6080189662325943 0.8521630942606946
Ar 2.5322415067134076 4.34184327814867 4.962896748129747
Ar 1.8701908355762453 3.4725560534872706 1.6834749310401766
Ar 1.7465727206291835 4.31133107848155 2.423373557347489
Ar 2.5519970875219173 3.5241184774967875 2.611433225294839
Ar 2.5496225214161323 4.3491079902186245 1.6250882186988964
Ar 1.7769762902072386 3.568661223694019 3.199125775898329
Ar 1.3268013987552874 4.111302532284667 4.063473363424952
Ar 2.331608299422869 3.5777922791848655 4.184679838726662
Ar 2.3748925348245082 4.406428010852658 3.4084264883070468
Ar 3.245758140009978 0.042232598683944196 0.007131437047820509
Ar 3.658134552347235 0.6335126080113154 0.9896623555650065
Ar 4.269430402479421 4.866314593015297 1.0238018098582984
Ar 4.33755318960245 0.8643238659961713 0.11251966987485731
Ar 3.407766412008165 4.968841543608668 1.718320013648797
Ar 3.248664322818999 0.7782840162573825 2.558125431112489
Ar 4.161802022551529 4.887968629379025 2.5444052594233715
Ar 4.058833508553273 0.8506821730671043 1.9343609492024956
Ar 3.4726562636669214 0.06250947056502962 3.3867365713620767
Ar 3.3432217381346425 0.8208515049883381 4.088932944828987
Ar 4.108642891093735 0.0637635590675204 4.33819645612415
Ar 4.271098156082875 0.8090804386022868 3.276474696704139
Ar 3.521278312836022 1.7159432884514036 0.11140649594775612
Ar 3.2334979102332455 2.620494727330881 0.7563516856100637
Ar 4.419747200426001 1.5090376144005702 1.0928313511093406
Ar 4.383622637046898 2.6222500783669473 5.011480302037101
Ar 3.4472485575626193 1.5962414340382152 1.6185730330386174
Ar 3.263323654942681 2.6999357532723764 2.482307964090727
Ar 4.007359257182412 1.7090404266272237 2.5962555001964582
Ar 3.9896681986861875 2.4103063519619803 1.7698146869126437
Ar 3.196888085043875 1.7779322722204958 3.3998725407845605
Ar 3.288375099864814 2.492390848860444 4.17082623234161
Ar 4.343163555210885 1.7622707842832026 4.154507353242749
Ar 4.1543254327917944 2.49403105569168 3.4007235631118906
Ar 3.1040030234728953 3.4661024939617633 0.03193554944121657
Ar 3.6546786743206185 4.087410860816523 0.9975705147466155
Ar 4.138540018405492 3.1304903620927744 1.0597053708713937
Ar 3.991666267109216 4.111999102551147 4.969441690030635
Ar 3.267597337435063 3.413539361902235 1.6722306088884462
Ar 3.3480340063451255 4.228496625638502 2.4420095536212347
Ar 4.610259682592169 3.6392467615486837 2.645726738155021
Ar 4.318946443110726 4.142944723787974 1.8763586332591518
Ar 3.288628535263924 3.4841221992607676 3.3958754675901
Ar 3.1784854972917573 4.330401635791062 4.213046748715343
Ar 3.8794228977495857 3.4145027199697893 4.243857334162182
Ar 4.0066811802706335 4.201871550532858 3.4706260690946817
108
step=3800 time=19.0000 Lattice="5.038789 0 0 0 5.038789 0 0 0 5.038789" Properties=species:S:1:pos:R:3 pbc="T T T"
Ar 5.0339096778742265 0.09633924079187309 0.07944052442847796
Ar 0.028401403566657518 0.788214894518897 0.9214416037175387
Ar 0.8197057112565952 4.9448612630376925 0.7225907448950061
Ar 0.9006268530141642 0.8397795688457026 0.055042675905470094
Ar 0.012171781154592401 4.863748075299775 1.6187186094643566
Ar 0.01905514529338126 0.8962329904715635 2.673993243762829
Ar 0.8244238022678051 0.016152410015282587 2.3992715403416183
Ar 0.6843456621583545 1.1010817605585934 1.5225017243763739
Ar 5.018288021312842 0.17980151576713865 3.5071237764774574
Ar 0.06612151251453731 0.9069326531328593 4.276956722924997
Ar 0.8677559842603211 0.239530331467563 4.2261793753330394
Ar 0.9627787377227569 0.8634423719363223 3.3392833728955154
Ar 4.976622310911263 1.542958620025723 0.09316542540041375
Ar 5.017608711116925 2.478998904313571 0.4910972320474156
Ar 0.8199899650123219 1.7058111715612965 0.6210893658232238
Ar 1.0685634854495947 2.5511992748485914 4.981602607694309
Ar 4.966958134455742 1.7891441240581756 1.2305438159073312
Ar 4.850252903753641 2.7512810900649938 2.522516747155318
Ar 0.5638005863205284 1.9699345145137608 2.3049273226794926
Ar 0.7368638604679872 2.506408680651423 1.3884396269775847
Ar 0.13658681708671874 1.8833240120437862 3.360722529303216
Ar 4.9676853498319975 2.360134601990661 4.379459836022731
Ar 0.9560817949587014 1.683279305461744 4.330211497228941
Ar 1.049619884858688 2.467119737032092 3.444602954600599
Ar 0.016431708513803888 3.4868613234819876 0.003260600159008753
Ar 4.906715235734153 4.1660672775322505 0.762928121828152
Ar 0.9424990848916928 3.3949079645617886 0.666705504393468
Ar 0.9356125092638925 4.165256736774731 4.939694278164698
Ar 4.959069583208115 3.3034301402175457 1.4917573823398305
Ar 0.09989670530927534 4.262219382092275 2.776401708533043
Ar 0.6649725067404134 3.3688470635893624 2.45141223243697
Ar 0.9495022929556513 4.267836522217151 1.7899172831644354
Ar 4.99544012977118 3.3609728313621905 3.408694882593986
Ar 0.011313149711511587 4.303550076748957 4.318143846410281
Ar 0.868700544243586 3.235344615895412 4.109819182379852
Ar 0.9746467681305904 4.204191192304346 3.7795686501132537
Ar 1.6333406900485454 0.04929430015568416 0.08625063002085931
Ar 1.706948745144579 1.0008344690513955 1.1170633141172484
Ar 2.630822309344817 4.917575033274901 0.9043181699786492
Ar 2.355272951471813 0.7451398632443651 0.2018470772228914
Ar 1.7543718827055341 0.053529955139209495 1.6034742113779599
Ar 1.636663036002674 0.6433366192283019 2.4427279270785083
Ar 2.551860493965614 4.852499544207533 2.527254181393757
Ar 2.603509609028574 0.7134183538729543 1.6514559004328353
Ar 1.7398033783714597 5.001617035757082 3.531434812043659
Ar 1.717889700868131 0.8975233686702092 4.225891983164317
Ar 2.6078053984028524 0.0959448781889071 4.399765006919238
Ar 2.539959091542747 0.6327926316158737 3.508136719343208
Ar 1.8338324483848867 1.5548952083860423 0.060901068481365034
Ar 1.6713680663549186 2.3784938935985815 0.9226321426583922
Ar 2.6026925607185643 1.6797243034440106 0.9593548947606211
Ar 2.5711319294719774 2.6504574155077196 4.913387172418128
Ar 1.4635225303462431 1.6912198984221674 1.8268938185945174
Ar 1.7018664721771362 2.4805102901259843 2.5838724583494397
Ar 2.4674466356613665 1.4309093129345831 2.427208991477828
Ar 2.4143183162396493 2.5025767429677206 1.8141364069477552
Ar 1.7338685230344046 1.5634361299821502 3.388081508660879
Ar 1.815177881114479 2.362332233334607 4.134608788211238
Ar 2.6074426208997985 1.6086167601339614 4.104863527830275
Ar 2.6128546003981294 2.759372473231027 3.336001651053474
Ar 1.7012435724514121 3.344773459678312 4.696983722699544
Ar 1.7019145369267754 4.312286911892884 0.8686636930199044
Ar 2.143047548439808 3.2666289176175898 0.9147653733170904
Ar 2.4359339684133157 4.056923288510483 0.0981074998623533
Ar 1.6469786792928922 3.491673412473561 1.787271954994936
Ar 1.5645708230157414 4.340563843046619 2.6972603031453994
Ar 2.6289244852066673 3.2908122199888203 2.444220503164474
Ar 2.45479134126974 4.112516182590137 1.7881097640977914
Ar 1.69958980275665 3.330538350888663 3.526310206582105
Ar 1.8848141731435644 4.316900510197193 4.335696359719532
Ar 2.6135202400336373 3.4589709755142364 4.203275250565481
Ar 2.5558715359498074 3.9096550254990476 3.3075130247807003
Ar 3.55082932908369 0.14323321978390544 4.975408393461838
Ar 3.4184067075189386 0.866921900035235 0.9440175377304976
Ar 4.192146976793502 0.008487452558819367 0.7033398023884759
Ar 4.044379234824867 1.0661182660241642 5.008283234409259
Ar 3.3388029143852287 0.014845697464299793 1.6512949674987796
Ar 3.2652201394316935 0.6078064578972611 2.514058124065069
Ar 4.2026400946538205 4.73673067184262 2.479859060021433
Ar 4.224878361851714 0.799036576791134 1.9857215917039193
Ar 3.4863521131623267 4.8365106883073175 3.335494947204992
Ar 3.366586312754354 0.9267006402222256 4.260212419678736
Ar 4.328700138340417 0.22363502829659265 4.3182394804479145
Ar 4.199806380477221 0.8359337080161441 3.2742750277594377
Ar 3.226021093858611 1.7373303886376268 0.016719122692392112
Ar 3.176962633418859 2.580785520314186 0.717487726908989
Ar 3.8801344772282613 1.7579552107987562 0.8414513175307058
Ar 4.02085956327758 2.3952069871471102 4.90637690572879
Ar 3.5389789871310713 1.5536795399987726 1.849427093671775
Ar 3.396655788261263 2.4550887394657015 2.8463385889447657
Ar 4.320219997213303 1.81369712626536 2.5860630440344035
Ar 4.111958375592267 2.4576269772325605 1.598209497715882
Ar 3.3785221395559843 1.4651899756428772 3.17996559497166
Ar 3.34716597292465 2.4658158178291836 4.077831071638106
Ar 4.051623440513732 1.6086542963883679 4.006419662665085
Ar 4.272891012442606 2.524388081315685 3.5640946360567196
Ar 3.364045872536661 3.4088773024038264 4.995886029994426
Ar 3.346765425526657 4.27544727789716 0.4831451534677221
Ar 4.121840570174191 3.2511606855108997 0.718695809607724
Ar 4.109722830636373 4.210065661533553 4.8050410820652365
Ar 3.4591981905925024 3.3704800613135397 1.5187506082454765
Ar 3.2909411779975404 4.142781587684323 2.54169599091961
Ar 4.236559406833864 3.651780498332015 2.204946301665707
Ar 4.0545775018981045 4.26444700545611 1.3745603958626045
Ar 3.4547674840499507 3.434488564360032 3.5649025231823788
Ar 3.1997390810082944 4.280077014432263 4.149358087672214
Ar 4.238803073467456 3.30818915852439 4.2722224920264145
Ar 4.23767988500304 4.094342018387333 3.495823113960838
108
step=4000 time=20.0000 Lattice="5.038789 0 0 0 5.038789 0 0 0 5.038789" Properties=species:S:1:pos:R:3 pbc="T T T"
Ar 4.997981680876233 4.867056935348478 0.23448996017882517
Ar 4.931234494434297 0.9072943459105282 0.8489680475909793
Ar 0.9520237547125576 5.032099966383547 0.9272492254815193
Ar 0.6138299162386677 0.7833139437758094 0.051489990966633876
Ar 0.033200211330785885 0.12786975793840488 1.4631747270609272
Ar 0.020218989838048866 0.8497935510848273 2.238061266161247
Ar 0.8133746877483972 0.034788369061263945 2.2665676302280624
Ar 0.963097003929088 0.9729406068483835 1.4626642627000417
Ar 0.022430171581969895 0.023134109770944013 3.1548349513804683
Ar 5.019765313067681 0.5757181010191749 4.325914370608605
Ar 0.8975830275096609 4.8829810694582685 4.115431932597031
Ar 0.8419095292502123 0.6873040479648104 3.2119911907926686
Ar 5.00462147194198 1.6344359852758883 4.719252359697018
Ar 4.8345552012839486 2.550973879412576 0.9140927372237841
Ar 0.4981421684270364 1.7123021105519558 0.7552759703787543
Ar 0.7279716428611144 2.636436784137861 5.020912296635072
Ar 0.15185542362277968 1.927356670430093 1.7682205364789616
Ar 0.06137973103607849 2.520545567741922 2.5928830382601875
Ar 0.7270332816826833 1.61953070145872 2.712619520176431
Ar 0.9227804692603616 2.6347504380425164 1.6440294063094965
Ar 0.15233214661005037 1.4037300186190376 3.602381907115787
Ar 5.038659151353305 2.5412516073220033 4.162991345269891
Ar 0.8584129342192602 1.696255615136325 4.2183548563258055
Ar 0.8055650618495478 2.5074882175045583 3.443031151056863
Ar 5.031489609077345 3.3914835137882093 0.026622746665787202
Ar 4.924665932496118 4.2510271139299585 1.1465692295577588
Ar 0.8294378868329573 3.487025253672359 0.8598033818509913
Ar 0.7983199193766023 4.21406736716682 5.0051566434233825
Ar 0.008643990339014205 3.3107878555050094 1.6955060697675086
Ar 5.017924331036601 4.140959866846105 2.613209866227041
Ar 0.8164187010476125 3.490505197970062 2.4365635963796044
Ar 0.7783560256820751 4.215399078340751 1.7168932285295886
Ar 0.121924801653211 3.290421594872294 3.270944029303466
Ar 0.055520589324254244 4.244755803477948 4.116994289963264
Ar 0.7053323368862787 3.4151157193163484 4.271914944576851
Ar 0.7685835576030959 4.174619274436097 3.3133401327548606
Ar 1.7655673887148304 4.948170664876094 5.006261079576258
Ar 1.9400355862195333 0.7478220268876484 0.7796380856192271
Ar 2.5519358965978562 4.9582152063080835 1.0300067512871396
Ar 2.5597093586310162 0.8240960338780816 4.984221266047368
Ar 1.7516784862614996 5.036354670688511 1.7297770402886616
Ar 1.703877297205366 0.8993795773185306 2.3738396354101923
Ar 2.7527016750714464 0.09456016721044574 2.6653949810801887
Ar 2.540232005546148 0.7495396039085324 1.7809723702212616
Ar 1.8108158031874748 0.06339072452107544 3.259402215373929
Ar 1.7190632088002584 0.5816268768629269 4.07746885196286
Ar 2.5179961974695515 4.800997766523708 4.166294436302836
Ar 2.6036663551059545 0.7804847222716653 3.481445698612697
Ar 1.7154040447788332 1.6805021521204853 4.973822954525627
Ar 1.5902974480992538 2.4742470738118607 0.6472993599653512
Ar 2.4155415405371747 1.6831547986170579 0.6543122127137251
Ar 2.4993931952097586 2.486199288333822 4.938128285600808
Ar 1.7738800191912434 1.6862433818195817 1.7133532773752838
Ar 1.5954573015917277 2.6484822306694222 2.4280332406148566
Ar 2.6371860367359656 1.656524081924605 2.6106521220262477
Ar 2.566181700158992 2.3382585540126573 1.6124397762493976
Ar 1.5655578168846787 1.6691620410419987 3.385171402374168
Ar 1.6268854760464302 2.6655482662402292 4.2647600740082225
Ar 2.630012985191268 1.8289617346770897 4.150772937647628
Ar 2.6799685666891975 2.6037172763976555 3.250120443608987
Ar 1.5041664511777286 3.390330341457441 4.9989712817015235
Ar 1.7138673162582914 4.271276454470859 0.8740516722689207
Ar 2.5703208418310095 3.122419349058472 0.9576133424928377
Ar 2.469983735963882 3.9643504019526654 0.06928809765808311
Ar 1.5759963103957126 3.4541831811823034 1.715763445023998
Ar 1.539815836035719 4.291902120545858 2.62388867053954
Ar 2.4135754398784663 3.2484782056913484 2.4396990768498243
Ar 2.401512766540827 4.172285385550226 1.8487756120760834
Ar 1.7062375327118373 3.213180990122855 3.3056243358552884
Ar 1.6239569759491679 4.129359564129088 4.081395400163203
Ar 2.4517718383190608 3.4934802508890335 4.048950808336319
Ar 2.4705991610689417 4.184410734065462 3.177051703298121
Ar 3.2198646363288215 0.06346764958573092 0.04537812679549504
Ar 3.394689666225232 0.7750388834266804 0.7946272294135036
Ar 4.217984492801132 4.969181745253061 0.8816298274217712
Ar 4.147692165499468 0.990635324684881 0.08412014951106625
Ar 3.312803309054317 0.07879977218042215 1.7638379560368789
Ar 3.5066906387286902 0.9308336207308143 2.615245747638469
Ar 3.9805450153462916 4.932415598758963 2.5823883020618945
Ar 4.092214023456565 0.6775217273293661 1.6552439417920903
Ar 3.369052557503022 4.90749953113579 3.5597675167876677
Ar 3.3617968391893815 1.0090904113007033 4.250321097176168
Ar 4.060041999414947 0.14711846656104344 4.272553564357696
Ar 4.119752682914022 0.6259441917045183 3.433902717698204
Ar 3.262521109715878 1.8044336234675165 0.06543103430454966
Ar 3.615046072274489 2.5904538009868245 0.9164955493281135
Ar 4.208281171898425 1.757931756721036 0.9083933543976651
Ar 4.09692464908279 2.5000154234692284 4.9560299749934655
Ar 3.396446766942196 1.569628059430476 1.587473133400188
Ar 3.356368136570218 2.7198512849487084 2.432953439784844
Ar 4.355009653986283 1.5456322447377908 2.5533591884267395
Ar 4.334663428585219 2.5678210766659286 1.8213907401588063
Ar 3.4143566602644797 1.8474650382644944 3.254147982984561
Ar 3.3502942109105147 2.7302943325802373 4.280583002854777
Ar 4.056523616459525 1.7820541289553657 3.938560552638081
Ar 4.29479107612907 2.46210042424322 3.1966838471348886
Ar 3.3715540493298635 3.350829027158876 0.146167884728523
Ar 3.479636973847084 4.250530036464169 0.8444193430356357
Ar 4.2984434317373665 3.488066996679727 0.9437736742877799
Ar 4.225303268205767 4.16535215673735 0.01427513573466339
Ar 3.3856016751606037 3.548739366854183 1.4892812215697433
Ar 3.3025068360638192 4.001971308865053 2.5122848959446826
Ar 4.298729898713557 3.38047051640206 2.6809699366204356
Ar 4.173058251259092 4.1573553573197914 1.911188212286658
Ar 3.4586843635035285 3.5192404535818174 3.395600490995303
Ar 3.3624718023249422 4.057358072183946 4.293433194188315
Ar 4.333953075517281 3.3684678459080097 4.219842890482591
Ar 4.17886005694533 4.262946383278512 3.3597653625628245
108
step=4200 time=21.0000 Lattice="5.038789 0 0 0 5.038789 0 0 0 5.038789" Properties=species:S:1:pos:R:3 pbc="T T T"
Ar 0.1594976720536087 4.992215498932782 0.0501819207720473
Ar 0.04117968208759789 0.6763029062141634 0.7800216320430288
Ar 0.9126838452073417 5.025092894601767 0.7723632056134206
Ar 0.7862919565366103 1.0914855227021416 4.880517393285668
Ar 4.915801922644742 4.923249675528246 1.6566666968973471
Ar 0.006290220115693862 0.7637753001583564 2.4732597882113616
Ar 0.6172137739213205 4.854834023635043 2.5651286945712557
Ar 0.8731552376002126 0.762746717377669 1.6373239481279098
Ar 5.028799409438578 4.840192367955575 3.468139923329533
Ar 5.01165922242725 0.591564256569795 4.211825761757646
Ar 0.9549840092097506 5.03866259055102 4.227681252365949
Ar 0.802936158647888 0.891854007236128 3.0932682702936547
Ar 4.959314208754519 1.7723688814702807 0.07737353329822652
Ar 4.880707861079238 2.6610086673915796 0.8232643297095795
Ar 0.6710936061561859 1.5960946387257189 0.9278106085531176
Ar 0.8645636480929622 2.3193202937950326 4.998813718378058
Ar 0.01805574679134868 1.6595646691774746 1.7734333253344372
Ar 4.983307808203418 2.4994139526928616 2.6149416581953604
Ar 0.8285087019247893 1.828122819039218 2.496022535919309
Ar 0.5541809816769019 2.5136386336601775 1.7083790740379532
Ar 4.866533219000047 1.5168963532629007 3.258349198191532
Ar 0.13295817394656903 2.7133346480746754 4.2973369894706455
Ar 0.41004858647644593 1.7631461072685881 4.0976395140995345
Ar 0.8648425495278311 2.68659689039871 3.560124847294812
Ar 4.915855293182282 3.4181803553568395 0.07415642807284444
Ar 4.944279898723379 4.218343503488486 0.8767387751051486
Ar 0.6987601503837763 3.332301750843183 0.6171877392598869
Ar 1.0724110403184932 4.20430368261223 0.07924156120010549
Ar 0.005109375734883468 3.437886408599099 1.6222401753703812
Ar 4.977820936399076 4.053146721123021 2.610861771793096
Ar 0.8909647225815406 3.4128528219018697 2.670060819700757
Ar 0.9799829193392215 4.185233121561771 1.624791623124055
Ar 0.004962999202209226 3.341772237160743 3.4412203683481652
Ar 0.007733813021568555 4.1816281820095265 4.251388805190294
Ar 0.8355836879594434 3.449004314470121 4.4309497916770235
Ar 0.8136308527673268 4.204270779458131 3.620466559310969
Ar 1.7130861177837011 0.11572851682707223 0.015195590013999977
Ar 1.5284584901512186 0.8196881806191038 0.8060288552387034
Ar 2.5434113671051297 0.26004157753348367 0.8923815310763009
Ar 2.5880044601874306 0.9008874289651608 4.855415112054386
Ar 1.7550800730600882 4.992926694759405 1.6345554625683656
Ar 1.6186362318398941 0.6696231299966936 2.4939447187959365
Ar 2.382567670642497 5.02411733543086 2.7263297848209627
Ar 2.6335126696226925 0.6704409836815156 1.8809833852457243
Ar 1.4950875579733087 4.907878103620303 3.345740889560547
Ar 1.6584201060771335 0.8059069167505049 4.0943475653248385
Ar 2.5645761930387327 0.10074849032849886 3.9792149380384734
Ar 2.668880074071575 1.0038780764458797 3.1582619150953244
Ar 1.7239724323231889 1.6141049691409528 5.035812604972919
Ar 1.8502385637935634 2.3471825903551267 0.8090819216720255
Ar 2.622560968072794 1.2370655994653232 0.9084460480348211
Ar 2.5581787539794623 2.509075254305695 0.00981188330593347
Ar 1.434706576087595 1.8079891331348485 1.6027185309436005
Ar 1.606968601482688 2.5740528232661983 2.4036950660427414
Ar 2.4082608625393847 1.7374667934513932 2.16174423320636
Ar 2.487973574511623 2.6690368275879424 1.7063492542082304
Ar 1.597225513916806 1.840774542102773 3.4011442783755954
Ar 2.081446536869453 2.5126734182235033 4.026084376331537
Ar 2.6856872532254314 1.625230063797719 4.161536922427763
Ar 2.573351323609462 2.5957961487788634 3.171173647245947
Ar 1.8238290032573294 3.3197800992227853 0.30021479862235834
Ar 1.8788185941332283 4.3519540365386895 0.785808272925426
Ar 2.708743602428166 3.2039144581423593 0.8492071073875871
Ar 2.535345101328882 4.225091708636113 4.963459212940169
Ar 1.4384328381702396 3.200476004349521 1.4199376644544996
Ar 1.5777112874934631 4.207292702874197 2.6042911317264457
Ar 2.3458839749523985 3.526650060431624 2.4833423272914352
Ar 2.515908551759287 4.214444022624474 1.7287550859274108
Ar 1.836781729223518 3.288083963060792 3.3630317165945867
Ar 1.8239123622820252 4.2138356878178564 4.097559336218927
Ar 2.5372994083108096 3.415147431228835 4.270520958481826
Ar 2.6480173539171012 4.068643707838287 3.3714343254023094
Ar 3.1787120750846074 0.05075898619093463 4.958423886102917
Ar 3.5002101220022723 0.6935432757411039 0.8560716643992272
Ar 4.222624962579745 4.924662599818862 0.8386558106809447
Ar 4.184304878022312 0.637024492945809 5.025253027361011
Ar 3.54384985676836 5.034358176049215 1.8017070621793843
Ar 3.5044684657026277 0.8533164057378737 2.345042719107139
Ar 4.303356020039155 4.973314099857811 2.719115359612151
Ar 4.318865514172066 0.7911682476486973 1.6606004442763955
Ar 3.297845208844843 0.15079617831294168 3.2369530022675175
Ar 3.5049997233188903 0.8872700691910994 4.270522639695754
Ar 4.121225104460067 0.08883760779797584 4.117555158169422
Ar 4.015473848102868 0.9613151084270863 3.2894459723259826
Ar 3.495903657935105 1.493836341389983 0.08367258439286954
Ar 3.3854098978858236 2.4711303707850987 0.9044283080438504
Ar 4.369251456897459 1.6180970827368597 0.9248926917788595
Ar 4.0716466848640005 2.5957856412918128 0.04742777707447273
Ar 3.28494173751911 1.4889690688130492 1.55181877574227
Ar 3.3236135726849296 2.2954787273763535 2.3202155762362495
Ar 4.234551013457047 1.6886269883439278 2.396425895786759
Ar 4.127475201693753 2.6671972963214636 1.6122270426000838
Ar 3.44500068971845 1.9307420865017635 3.399558852605242
Ar 3.489306700137768 2.592597960693024 4.227754169163973
Ar 4.261852209081158 1.7859648265107457 4.291831317716156
Ar 4.33660094082282 2.605424821630266 3.527938640591937
Ar 3.3619075488809385 3.5864847633650037 5.032242080953409
Ar 3.1726987265584166 4.2911583896907635 0.7459334110392442
Ar 3.9175157408630077 3.4968664973506014 0.8889565081793606
Ar 4.225628631181271 4.418974762457834 4.908053466144294
Ar 3.3748636874846993 3.4127595564047475 1.8042051450099112
Ar 3.338576339611938 4.320825866558049 2.521395913945153
Ar 3.984683991045567 3.1543659176189145 2.6284552732172326
Ar 4.3316613116040985 4.1426380654008375 1.8163191666194287
Ar 3.389866345647811 3.30131943969597 3.485339113041992
Ar 3.3188943257852923 4.341315997052856 4.184759093729568
Ar 4.320360840856531 3.4588459483221876 4.3168035157468765
Ar 4.132544876443581 4.007143386037774 3.4678492479514187
108
step=4400 time=22.0000 Lattice="5.038789 0 0 0 5.038789 0 0 0 5.038789" Properties=species:S:1:pos:R:3 pbc="T T T"
Ar 4.746632267809819 0.08861350432436581 4.896416269403971
Ar 4.996622146632268 0.672477901370964 0.8342455786617062
Ar 1.0599206888671666 0.250302503809031 0.8844742057881027
Ar 0.6684059288175059 0.8370611895938082 0.053909757253839945
Ar 0.051582664105342124 4.961207948108773 1.7044729418641449
Ar 5.013898496198389 0.827459117520234 2.4626731957775987
Ar 0.7528196741909126 5.036577549374758 2.5451691928829123
Ar 0.8031278559130174 0.644145046599658 1.7572626520045762
Ar 5.02866958217148 0.0904334842236252 3.38469835160777
Ar 4.91956709097645 0.9208665088957733 4.222958993176194
Ar 0.6961469201215154 0.044522906203768545 4.348413373826679
Ar 1.051778870703255 0.7735107854262662 3.3425115050128538
Ar 0.0334313522217294 1.839160121359474 0.04646000417876832
Ar 0.10593436749001313 2.7562279750328327 0.8848287471569257
Ar 1.001711576266598 1.4560378235925373 1.0175856210995513
Ar 0.8335212857574431 2.470864810902751 0.16157683264936704
Ar 0.1522126566606763 1.7002305673931508 1.7399312440983798
Ar 4.978456894609824 2.5212736140003194 2.497857096548952
Ar 0.822335955311145 1.476468343007406 2.421145043064131
Ar 0.7527105583389824 2.7313826709158815 1.6476445586637498
Ar 0.0346172790305441 1.7098938198112172 3.2478302817638283
Ar 0.011648111238554429 2.521349360695408 4.156158985826131
Ar 0.7771815203170984 1.767574686680919 4.2000967631042965
Ar 0.7818258002486069 2.682748118864363 3.20905458744819
Ar 0.07613810503107388 3.321825890455653 4.991595188775815
Ar 4.997130474309352 4.28098632106361 0.7754375212687976
Ar 0.8021803179668241 3.5594585013164455 0.8560279554115274
Ar 0.8446776116486103 4.400085313432329 0.08788312388236547
Ar 4.903730031254621 3.3936616728894657 1.6577468725711766
Ar 5.024324543279135 4.267896730289373 2.5900264297794138
Ar 0.8052933292675 3.411469867539572 2.53449877370252
Ar 0.8356370181868401 4.368648149020459 1.6321118987112715
Ar 0.0884515748490193 3.3768151745766204 3.2986179505538713
Ar 0.03707177616908656 4.190733057003217 3.8871150128328997
Ar 0.8812698418948851 3.4647426185444274 4.241460415788895
Ar 0.8571400917400458 4.279068450601287 3.229817560241343
Ar 1.7386587404244358 0.009505142483133626 0.14370259206366504
Ar 2.034873324112987 0.7846022451598754 0.9368118612659161
Ar 2.6018852473061065 4.967505584868466 0.865695249974603
Ar 2.777501555496925 0.6541966338253454 0.005320917796018684
Ar 1.756619637571891 4.924503529791956 1.706762791590953
Ar 1.6081366565974822 0.6126496284310508 2.506415896935719
Ar 2.580896504203903 4.8864207703092895 2.592794970308755
Ar 2.5373653098425724 0.6359963589059682 1.8162257591445585
Ar 1.7355782318193533 5.021041549015355 3.437433640325396
Ar 1.6147741218074416 0.832088149049926 4.312543669615494
Ar 2.5198560538162953 5.019344327696107 4.215943811766488
Ar 2.3541345775173137 0.9049675185233261 3.4736011366038984
Ar 1.8729685363844124 1.3617330445631275 0.11895453438009283
Ar 1.6273717236932623 2.651244319338694 0.8515089010292605
Ar 2.535033251538698 1.9741126014337784 0.9036763041734378
Ar 2.397113866536891 2.563072844898125 5.025131645736156
Ar 1.8829648267396204 1.5027914237841635 1.7297667077391026
Ar 1.845382863244365 2.668017926264205 2.4765018673614163
Ar 2.383568908217236 1.8242048804575168 2.5524539179721013
Ar 2.507752246439469 2.627779693495454 1.7256147546420992
Ar 1.4132045862628002 1.7675371427057087 3.2667303304870363
Ar 1.6262013577888805 2.5152903947577823 4.230584490820345
Ar 2.4446500725193108 1.5976798519690425 4.253030835939516
Ar 2.5070935844121 2.3023719650249257 3.5594333704117656
Ar 1.727274013326255 3.3954590307079053 0.17397401368411344
Ar 1.6631244624250232 4.238817420991879 0.8106071713220562
Ar 2.5898280707620294 3.3760391565646395 0.8486694200541613
Ar 2.6276106255510037 4.037542415908244 0.010952674069873498
Ar 1.5909349801087784 3.456668197683259 1.6820446340916613
Ar 1.7180466384374087 4.054207604625253 2.4495729233331125
Ar 2.6675882645372795 3.4937007243529474 2.3119456761383943
Ar 2.467913952718208 4.21211199962735 1.5949110459083535
Ar 1.7269270139825332 3.336449727720868 3.389884779226685
Ar 1.8675083410953597 3.8649884593372144 4.288845330778351
Ar 2.6045392324571774 3.152812476106969 4.144285682452681
Ar 2.4732276824938686 4.19163071211003 3.3306215861712043
Ar 3.296824274285269 4.819461447155842 4.895517441555857
Ar 3.1361305744234773 1.0277723383033792 0.9397749918818916
Ar 4.179273935266544 5.0311329644722385 0.8654205172457254
Ar 4.02118637035493 0.8734830565929751 0.06344719358297402
Ar 3.4144107699398907 0.08394374229225106 1.578073491300929
Ar 3.178140691085718 0.7837969717820783 2.5444499619496277
Ar 4.152388760057556 0.13493957409091992 2.429034896508884
Ar 4.164407177152193 1.0368286860210727 1.665107982537009
Ar 3.2509255659769294 5.034537112583665 3.4393310935090775
Ar 3.2901725479742856 0.8656252511367505 4.082164974336528
Ar 4.164251698407265 4.7720786699917355 4.021586704462886
Ar 4.1995098371269615 0.7847735139927967 3.3713953904075002
Ar 3.318240541844078 1.9071800204019649 0.08134598302671397
Ar 3.465560191948094 2.6150364042560814 0.9162262850290577
Ar 4.1045167750901665 1.6712127635655212 0.7939083419952278
Ar 4.2326659266393225 2.4412124742963988 0.007191429753658938
Ar 3.3317077670784916 1.8982967185788213 1.7903443112259219
Ar 3.110344429997749 2.4890851829489957 2.5910733537284854
Ar 4.173392671912947 1.6777865294635357 2.5781065249707886
Ar 4.3372077240104865 2.478774430723112 1.5065948552681199
Ar 3.1748957147143484 1.5316775404825524 3.3418618405871334
Ar 3.454491524817194 2.447396649420105 4.229002115183768
Ar 4.246555429636941 1.6761562287192746 4.057844958692471
Ar 4.146819988454333 2.5744961806212956 3.4143970060539717
Ar 3.349891412904423 3.189075728094919 4.96520743096829
Ar 3.2939784361254345 4.137212153013212 0.895895709757852
Ar 4.248679987621819 3.514834476965788 0.7130345538665526
Ar 4.234562524409441 4.090659073496019 4.933997214488953
Ar 3.556349110243065 3.201034364547363 1.8100700531893341
Ar 3.373396399272315 4.199551822041005 2.229152841252632
Ar 4.274751097546495 3.395218891225405 2.6331919121494707
Ar 4.203103781028286 4.229779845491095 1.6767219515995142
Ar 3.339107238919849 3.3186291323030366 3.2302737267706614
Ar 3.37024003966258 3.986989200739393 4.307654963146863
Ar 4.304184608797578 3.4152618826837657 4.069523086917541
Ar 4.14640415745573 4.322361572838045 3.117622810925175
108
step=4600 time=23.0000 Lattice="5.038789 0 0 0 5.038789 0 0 0 5.038789" Properties=species:S:1:pos:R:3 pbc="T T T"
Ar 5.037842340596952 0.09377700155343517 4.931236716270464
Ar 5.004808681149559 0.9226506370005725 0.7658927847540724
Ar 0.6973447407788773 0.09164774226661102 0.7504200497633884
Ar 0.687392484794787 0.9883006691070292 0.009282168097710777
Ar 0.10747522063212017 0.027330944140788446 1.6392637129416467
Ar 0.1228017087483145 0.8230088065393524 2.5565709911654735
Ar 0.7117068052780492 0.06049890113236645 2.6553036146719062
Ar 0.8354007510676256 0.730491197187051 1.8131175877298562
Ar 4.9998508583191565 0.015347928193106451 3.403120826982317
Ar 0.09303812536397865 0.7501934173154587 4.163145113735617
Ar 0.7841127626854655 4.928151089996371 4.158890317633746
Ar 0.8527868109269721 0.7418899688497831 3.3926022759624033
Ar 4.953341452049629 1.7452537982342742 5.018960404779215
Ar 0.03277006697870936 2.4830273319985867 0.8749520181098481
Ar 0.7617396249038756 1.7153199259688858 0.8709984085605235
Ar 0.8867771010231092 2.347602743524462 0.004072692105238031
Ar 0.03111388906476415 1.7897493196436562 1.6479493230483753
Ar 4.941358705808916 2.4768403891625566 2.5042400911846543
Ar 0.7434824840587653 1.7949002423458185 2.432577572703843
Ar 0.972170485252802 2.562945388677128 1.6111135098848128
Ar 0.1746644188092684 1.7214556177394529 3.3747881051283626
Ar 0.20300170438599197 2.5153973961795906 4.27959855228943
Ar 0.872510240082684 1.7156626201312943 4.201643347453962
Ar 0.8219357599838096 2.473809117099449 3.501982190596875
Ar 4.993973230718308 3.4651691452016293 5.018650377809689
Ar 0.21716836164031142 4.19568543891356 0.9873270738126667
Ar 0.8126569509769361 3.3173460726060138 0.7418644991156099
Ar 0.709793296107523 4.186331803730363 0.019868434660932896
Ar 0.0689199482143131 3.2061689989344493 1.599878664340362
Ar 0.09492320067209417 4.099196822044709 2.563620821242515
Ar 0.7680419680708614 3.171255988555062 2.5095260133129726
Ar 0.9972785224590175 4.263351068532846 1.9098295763452675
Ar 4.910514884865361 3.3084631579795984 3.3134981339172125
Ar 5.037935359982478 4.202800202243192 4.2066836333223545
Ar 0.8272041044839873 3.3664478669792173 4.2614490830789835
Ar 0.8284753734428958 3.7840718467237098 3.318929264320984
Ar 1.4491387664015354 0.02119230918548759 0.08026027457809458
Ar 1.641267370553422 0.8382936478543946 0.9027666428052764
Ar 2.3671570596601645 4.873049197951394 0.8882779602364264
Ar 2.6444578786240984 0.7073764040315174 0.20563309307247207
Ar 1.7614065803574441 0.15346377461085017 1.7410757480849857
Ar 1.5203398672480648 1.0294379731321217 2.6960521975198724
Ar 2.4157814158655437 4.861593393631155 2.4398073500602346
Ar 2.5759154392189054 0.7900380334073617 1.6713295603919611
Ar 1.7826584331188173 0.13214567178120892 3.3283877580205146
Ar 1.6080754038694371 0.7144374258540308 4.247956738457121
Ar 3.0704281620638474 4.998361015645664 4.018514811491455
Ar 2.5237977291243157 0.9188752620781714 3.4641068045090018
Ar 1.6836166818464793 1.5243669630585173 4.921504426923646
Ar 1.6818505760491367 2.6618211509250735 0.8034219042835722
Ar 2.6152790342883363 1.6787201340836595 1.188003325517506
Ar 2.3877171311577325 2.516893546391348 4.9176056653290825
Ar 1.5648596319912855 1.7013179491405725 1.669189286455483
Ar 1.770059587328318 2.585247370443802 2.290864665758649
Ar 2.4145479510013517 1.61039820156759 2.355329882311259
Ar 2.612257584881575 2.7906060354688504 1.4931109573907546
Ar 1.7769113311335016 1.7973251719859658 3.4007832032283005
Ar 1.5533131986156896 2.4633150380423987 4.2048989180322005
Ar 2.4138226650464447 1.7141987753954895 4.200121127502448
Ar 2.4474691066309293 2.5001058487550023 3.3725785713210237
Ar 1.538028076424026 3.231043268517063 4.962156363420082
Ar 1.4247816133406996 4.303894981449164 0.7959356933269047
Ar 2.2297277228082866 3.5252809191574603 0.7120596925672854
Ar 2.220906018828348 4.295538669070711 4.988571119587143
Ar 1.685400495918854 3.479905733421072 1.8967686911798523
Ar 1.636983959636729 4.178066941310967 2.800517469500797
Ar 2.4862157702483727 3.3457119658511107 2.5732491084977687
Ar 2.4296045887127806 4.163435220026428 1.6579803470908063
Ar 1.705595708114263 3.2148938470161212 3.3862465665918307
Ar 1.585111523014629 4.252959912394181 4.011186020991265
Ar 2.4059897411298827 3.535981168993163 4.251355421017552
Ar 2.6741879970651903 4.214358934174875 3.4545217956340175
Ar 3.5324820820345457 0.0731800754762818 0.03504823254709814
Ar 3.5236022177514363 0.9517793856835032 0.8585155033894141
Ar 4.4372704094591775 0.0018241995779009201 0.8300364551175328
Ar 4.253616712799572 0.8753490927669446 4.803204158762229
Ar 3.4340400497644614 4.9174735403441145 1.6098106963297671
Ar 3.3912612369161983 0.9078226492536322 2.487575892078194
Ar 4.260568239876727 0.07549412573144913 2.358383266632666
Ar 4.273827587106057 0.9617544376643553 1.6096344107005205
Ar 3.3111067261867637 0.01036610660043307 3.0431139784528223
Ar 3.3064956769332725 1.116026729004188 4.16559059731548
Ar 4.081535204888908 0.006662433761054746 4.035764918593835
Ar 4.164445696216691 0.7215484287168413 3.2522792836605943
Ar 2.932532869078904 1.6374881095998493 0.14303628387960154
Ar 3.557806769449733 2.5105303566648924 0.8184559039894231
Ar 4.284536314065044 1.7999195085967366 0.8148370733844295
Ar 4.107420423658079 2.279076447113537 4.8315285872934055
Ar 3.4338321601062365 1.763000221112465 1.7256369307317767
Ar 3.333099392437805 2.4914473174419234 2.503251111112979
Ar 4.187555853170633 1.503282914187261 2.6988151958524123
Ar 4.1583354273370645 2.64142408647976 1.673793006110976
Ar 3.301040184559254 1.7420877782572692 3.3259352046843933
Ar 3.3088914177961706 2.431130377048529 4.223434269695488
Ar 4.408989031695849 1.6446977368881004 3.954166620385838
Ar 4.061962412489709 2.560655958315696 3.456957769703452
Ar 3.1662735008240412 3.3020182999381866 0.005520040715425848
Ar 3.456440362778554 4.332185224667778 0.8065622514997964
Ar 4.3803213378327195 3.3462638350913747 0.8651332884164956
Ar 4.325853427343674 4.219963999141123 0.06016468371629515
Ar 3.4583109453165073 3.4091940335986477 1.6684632197157754
Ar 3.3286966766834465 4.060720948797611 2.5698044370609123
Ar 4.2499251243521865 3.285559277377968 2.5336576241809414
Ar 4.4876551491571055 4.264898078374687 1.712365720147097
Ar 3.290813127616253 3.3617890163044373 3.385390140256754
Ar 3.5496453394289675 3.965562749571682 4.405732980312206
Ar 4.335855290723562 3.2133735652932285 4.2703062069402264
Ar 4.078775826286676 4.148685200697105 3.547699947080365
108
step=4800 time=24.0000 Lattice="5.038789 0 0 0 5.038789 0 0 0 5.038789" Properties=species:S:1:pos:R:3 pbc="T T T"
Ar 0.0324867407339679 0.030446511269379743 5.038144318037492
Ar 0.0731629319004671 0.7401706598255416 0.6677240240786841
Ar 0.891232399650276 0.06597011993729285 0.8204989511052296
Ar 0.8945266787463916 0.8215279519215161 0.022255550267032683
Ar 0.004499011621024567 0.02706774494629047 1.5560218470560827
Ar 0.07812554819579473 0.6446061863779348 2.3969144538967466
Ar 0.8013774324213724 4.70974904269845 2.519825510274994
Ar 1.0664907217476631 0.884934448273604 1.4651755603471095
Ar 4.974078686483925 4.950087050660015 3.364602324783108
Ar 0.12064534448354718 0.7834473988753577 4.167509200971832
Ar 0.8035976023400984 0.0425574459404205 4.216305533687088
Ar 0.8228727853979091 0.5505006167282822 3.257149536029859
Ar 0.04661748715135057 1.5861877177706847 0.039852004490744206
Ar 4.899482449993327 2.59207598710747 0.8676707533253479
Ar 1.0224615627309548 1.8115415625675662 0.8012791763448059
Ar 0.7806675479649062 2.5623068252867682 4.993100913212296
Ar 0.25642797648005244 1.5434557317097484 1.5620341771938488
Ar 0.07541478721906397 2.3942718365456783 2.3381455160664477
Ar 0.807327466297112 1.542674773393761 2.5549171939773
Ar 0.7959036305232523 2.4965952837577583 1.5552928341472576
Ar 0.1233229257787212 1.7910587482670692 3.396228867628779
Ar 0.01168985475395757 2.538068596165365 4.323990069118164
Ar 0.6657599207552548 1.7133384113558379 4.310286658582494
Ar 0.8204744953700813 2.6075979179088344 3.559761077716642
Ar 4.819902353522708 3.547998240239951 0.0541648540101111
Ar 0.115582259066894 4.246270673319085 0.8496332050007902
Ar 0.8394549844194842 3.434087686911197 0.6727534140587755
Ar 0.9219568309947672 4.413168567750759 0.02264458119784426
Ar 0.13922651324369004 3.3280593373832623 1.656159881110121
Ar 4.852119562507883 4.203178305902198 2.6252866690565306
Ar 0.8518403474271046 3.176674629429204 2.569522118516318
Ar 0.8194138441504546 4.264508430753791 1.6472983763065139
Ar 0.010873999636888808 3.316686598113223 3.449175533092205
Ar 5.027007804481841 4.288137809947846 4.319606699519224
Ar 0.7063478873157554 3.499632494952191 4.309349827186172
Ar 0.6391209393893712 4.206460124341475 3.4281366499544887
Ar 1.825334879874337 0.09186849015885447 4.9056108814968535
Ar 1.7785796872699138 0.7518809869586396 0.6207578479684834
Ar 2.421698294511037 4.913093987789511 0.8464716508888239
Ar 2.495286665919536 1.0581106864888274 4.625719735825008
Ar 1.6421658708083435 0.007481422943256891 1.5405541048679774
Ar 1.5045448611259744 0.8018521900480847 2.4138145756588667
Ar 2.5562686454032075 4.936382364165664 2.4883577678593887
Ar 2.427233882234989 0.886625198247023 1.707060294910102
Ar 1.7296910105650936 4.995701652488752 3.1727452341696254
Ar 1.4641569461047617 1.0083323150377406 4.1239497612373555
Ar 2.674267174212434 4.82979010299503 4.103650768201186
Ar 2.426056982392859 0.8811384351529091 3.5367825473936927
Ar 1.6598790531392227 1.7093471477774242 4.873382110013813
Ar 1.5814224172592606 2.603341004143558 0.7391644206561087
Ar 2.354874214446157 1.7861369715793312 0.8673639593863696
Ar 2.5999129720668104 2.6994749582089184 0.11112252622299318
Ar 1.631354481504107 1.7272217348073458 1.6493482224718412
Ar 1.7977963685249438 2.549984140462876 2.6368912015470936
Ar 2.405440394754456 1.752109680340383 2.3475752575548396
Ar 2.6817924228923236 2.688198041124504 1.6007826118948838
Ar 1.5759228935412917 1.8072556471602876 3.307985939702314
Ar 1.7251514864054465 2.6273858599570925 4.255086850503941
Ar 2.529167509873733 1.9907410246957007 4.300456875433996
Ar 2.6266137155870837 2.6306039016824174 3.491648571426924
Ar 1.7047794092079278 3.3223719757193946 4.925805672338137
Ar 1.5426403739038055 4.261105360123339 0.7055683415699715
Ar 2.5223999574371136 3.476953736170065 0.6917431424800919
Ar 2.3435122261259003 4.2792932496064715 0.022272865638002633
Ar 1.5556628382323803 3.321074292691741 1.7508050111163507
Ar 1.5629944956326856 4.0999708480619255 2.5368404402286746
Ar 2.783369938391316 3.299808184300628 2.602143879248125
Ar 2.390505786714727 4.050726678379082 1.5342083353975613
Ar 1.4682496224342552 3.4721781100334477 3.482108877429096
Ar 1.5558328729108375 4.3228426482036655 4.160502073255522
Ar 2.3679791140128916 3.481024017214306 4.092498710807972
Ar 2.467562842484908 4.216004204438873 3.324659599837258
Ar 3.179242854282605 4.829606080647196 0.08574305546801995
Ar 3.2298592855876627 0.7499749124286929 0.9432808160829957
Ar 4.265557036945794 4.946060699975191 0.7610464916950935
Ar 4.1699166959359175 0.8758892466326721 0.0577882455810401
Ar 3.2074652549827265 4.839357664912706 1.7558660071003174
Ar 3.3312644310164448 0.9971501368219823 2.814944545824986
Ar 4.188550817470321 4.990029928005839 2.4073113068522223
Ar 4.14841369616991 0.756433915560088 1.6086118322012157
Ar 3.399387455270351 4.811616041575548 3.2625327684027945
Ar 3.471684163296405 0.8124501576342181 4.212912676443196
Ar 4.263942542133375 0.23663022614583462 4.221991532931248
Ar 4.385480699977701 0.8024273228807487 3.281403460462801
Ar 3.1607361021386997 1.6393957933517578 0.1270806151564352
Ar 3.4542898893641922 2.60924498470491 0.8088110446509627
Ar 4.325882415811707 1.7326824490656954 0.8610208915824699
Ar 4.050294630723683 2.313384086260576 0.02139958218674238
Ar 3.4164353430903494 1.7704892739151996 1.6423701572093905
Ar 3.3217196261521846 2.26635294966859 2.7069286741275285
Ar 4.397900720409886 1.6617793679683668 2.3150761437666123
Ar 4.240956311364426 2.5841404876660583 1.676346880621737
Ar 3.304938893136124 1.6872483272625893 3.674366260267268
Ar 3.3858884279716785 2.757025061091526 4.2349804749402225
Ar 4.3403263656160735 1.604203735880723 4.252012745350057
Ar 4.205240261601716 2.3853715857727877 3.5277483125724034
Ar 3.5016389870947577 3.4670193599212547 0.1404727855806491
Ar 3.3246121369990194 4.199123956547367 0.8766212614960681
Ar 4.253133930573241 3.4694615664581647 0.9591976134415244
Ar 4.1686187774273025 4.35383205979965 4.92711566446342
Ar 3.4815663823467276 3.447371892666566 1.7237071617226838
Ar 3.4605168263776425 4.014205694443183 2.6833397219837467
Ar 4.4053701526787306 3.1990585296307903 2.642064820357283
Ar 4.287661443570068 4.187577015023106 1.7625625720001767
Ar 3.4491813300342846 3.165535289315475 3.299445087453061
Ar 3.3238253313259163 3.9900955638758386 4.29351224557715
Ar 4.282370632269365 3.224932587232336 4.280354951120224
Ar 4.163963233425714 4.102489483825934 3.6731789210100416
108
step=5000 time=25.0000 Lattice="5.038789 0 0 0 5.038789 0 0 0 5.038789" Properties=species:S:1:pos:R:3 pbc="T T T"
Ar 0.013860007487401101 4.883880468125008 0.00864003670038593
Ar 0.010843433649415087 0.8589751203286365 0.5984032941836587
Ar 0.7206185248566519 0.13257607216694686 1.0065932583833954
Ar 1.2026760369820135 0.8524550576488736 4.975223327783228
Ar 4.998524564467651 4.939175277811563 1.887265937612965
Ar 0.06220124407491948 0.8874415275693259 2.665103105875815
Ar 0.8461844996338962 4.943833797345973 2.537970498981873
Ar 0.8811917829044627 0.7674465221723327 1.7973692603186757
Ar 0.04877931820098076 0.029721839428487346 3.4117856815687686
Ar 0.12624363352125242 0.8977793540261746 4.635967565119251
Ar 0.8314228589369747 0.06987823209762638 4.338254368764908
Ar 0.635125835762609 0.9426779978802142 3.4565579288908563
Ar 0.07136222137441184 1.9000376457233992 4.980547498302819
Ar 0.041580214732650264 2.543323639158511 0.8182122462978947
Ar 0.8207325407318905 1.7149064064959683 0.9599938504528055
Ar 0.8289611281423691 2.8397652178827992 4.978850151057509
Ar 0.027236050410318995 1.3953731389292665 1.5706176814670276
Ar 0.10070541389292638 2.381448214158539 2.3109437839608824
Ar 0.7776685681228038 1.6353526793504387 2.690581326040346
Ar 0.9217005785348127 2.4507262171988557 1.662923922814438
Ar 4.960999163410878 1.733562573384176 3.473294577530969
Ar 0.08273584269930216 2.5693202892225835 4.126122236444145
Ar 0.9680264950931318 1.8204342553937758 4.4216554310787
Ar 1.024327927090607 2.2981956857635875 3.4079272666572806
Ar 0.02745292824593042 3.616621854893976 0.17147196524792552
Ar 0.0493741238423997 4.3312334916408135 1.0320196441991554
Ar 0.8647074383567274 3.44906632827628 0.8747684540517724
Ar 0.8131070224047171 4.266445358488399 0.16752561898655335
Ar 0.05399410079674881 3.3888803682900135 1.663393073743223
Ar 4.9572240864053505 4.063017512704093 2.6088018929277332
Ar 0.7755410752991407 3.4649909462165267 2.4553301605011706
Ar 0.9538345872512448 4.383175490334925 1.605192952925422
Ar 0.028334252422943785 3.218111868846343 3.327515888255505
Ar 4.908815152650682 4.105162383680428 4.194340478230609
Ar 0.8014498223408769 3.491874791562369 4.159604131214313
Ar 1.0525462310055687 4.352526102056622 3.4464001776162694
Ar 1.6002190374278584 4.8627200528090935 4.976976601614063
Ar 1.6981426230621133 1.068391420560187 0.910061563574678
Ar 2.4672964798171386 0.047005251198473444 0.7921489579461373
Ar 2.682828786368272 0.9087899756974054 0.03018598846346498
Ar 1.735938470394436 0.05257994554036217 1.6107123203591958
Ar 1.66361257018462 0.8022657695049821 2.486570475453663
Ar 2.469740861707975 0.08545919039451189 2.3656388158440635
Ar 2.6137547517617894 0.7813402407503529 1.6212977059823441
Ar 1.7448533400412227 0.11136458800278382 3.3807238516626756
Ar 1.6305021110142466 0.9249615251123481 4.089161943114847
Ar 2.542971739635238 4.795982464426138 4.033333877036103
Ar 2.5888850151046827 0.8695696567031767 3.337241989149134
Ar 1.897645257489867 1.8050292277441642 0.2172462831068869
Ar 1.5295383867233652 2.648873915394348 0.8808163597339463
Ar 2.6410111660712734 1.630065138777132 0.8596155392058837
Ar 2.4970020962144184 2.6092167499611563 0.21059182371547508
Ar 1.546436361450239 1.6106874743053874 1.789150860502976
Ar 1.63839670906905 2.5623378816734377 2.5029568855531257
Ar 2.3640891716699044 1.7771701768074775 2.4578110566910305
Ar 2.454691259504002 2.505169528570173 1.5567405633511433
Ar 1.739915083608308 1.5509478459897592 3.3229593394348598
Ar 1.592976950055507 2.7378369953103063 4.333263139727791
Ar 2.4016456526241967 1.9765562799014629 4.242026526839084
Ar 2.3723224164872527 2.533008509068823 3.2983446360696744
Ar 1.734181637907854 3.4128600057434992 0.24069791533593576
Ar 1.7438163905658974 4.27230349110955 0.8584145721105698
Ar 2.6155088071280996 3.447309095377021 0.8533587264378774
Ar 2.6010750118828248 4.002960370889041 4.992886723855464
Ar 1.5527269164382203 3.395827840845894 1.6644922481883326
Ar 1.6636825525269503 4.3801260363984555 2.395343920216601
Ar 2.4293781953133373 3.317163716052647 2.3383901483986023
Ar 2.461583214874568 4.1956000043297115 1.6521785915116283
Ar 1.4528128433137337 3.386407481141259 3.2658446314795233
Ar 1.7057590734532468 4.116261245145716 4.27616903292042
Ar 2.485478378250526 3.3200270411356665 4.064143168098017
Ar 2.472487163214257 3.8614034254527905 3.215021014368971
Ar 3.3128484840693013 4.967676899315288 5.0219116978523095
Ar 3.4394899889695334 0.7383077733873071 0.7098506413596
Ar 4.186554602877743 4.967788450090348 0.8210941957663718
Ar 4.132756482617053 1.1233063869003972 5.009726101576128
Ar 3.377163945164475 4.953240077564216 1.71240375964848
Ar 3.304737844727198 0.8264491741662775 2.5197987087574005
Ar 4.078188394583191 0.09418630995615504 2.6396027231805155
Ar 4.241070803366426 0.6091097659971468 1.666285887410282
Ar 3.110373865637731 4.925449534187275 3.104744420739959
Ar 3.4089637624014917 0.9859898999787682 4.227088116357804
Ar 4.166063329288911 4.902415411009973 4.159059237827018
Ar 4.330919471060436 0.7868655279030061 3.5488132956241927
Ar 3.27150474771369 1.7828362942538676 4.958044734951389
Ar 3.4111649113707414 2.433101956223615 0.9160517811065705
Ar 4.393265008096949 1.7983360015208447 0.7300470865518581
Ar 4.346378745200695 2.741053779726118 4.9787538263765905
Ar 3.514991452207174 1.36832011879067 1.6864713564107081
Ar 3.336274526980255 2.4621789354589767 2.2471160106721433
Ar 4.211208777480189 1.4184976192535341 2.6861401364833135
Ar 4.24192414288187 2.507537967834482 1.7356260932783016
Ar 3.238061675765009 1.772593986937465 3.3390403284176675
Ar 3.347423622479047 2.6044553528483028 4.166693310096035
Ar 4.133901144694672 1.8083779346145108 4.1876468378495
Ar 4.175891976301854 2.4623060121617586 3.0826695243896323
Ar 3.287293724063691 3.2288205056585553 4.971579632436814
Ar 3.177294696849877 4.36183794937618 0.8059342863835443
Ar 4.2055433161298845 3.3320772030726697 0.8785559899521523
Ar 4.187666647987866 3.9793673116473567 4.977556231372893
Ar 3.2455827879715264 3.280510394548534 1.6631995699700501
Ar 3.4451029604882675 3.953438885638904 2.5648627463921985
Ar 4.276681549491063 3.2666388519876084 2.4785829060254794
Ar 4.144762746990374 4.1648795831584815 1.7300826350434557
Ar 3.280888266715464 3.2628403363360654 3.1842259099892734
Ar 3.2681655622360894 4.080617463468165 4.183871192652952
Ar 4.211565102548092 3.064992849596397 3.9990767320255474
Ar 4.135975877727614 4.1319957894657335 3.3302660360910097
108
step=5200 time=26.0000 Lattice="5.038789 0 0 0 5.038789 0 0 0 5.038789" Properties=species:S:1:pos:R:3 pbc="T T T"
Ar 0.0909263243105237 0.208255750069438 0.12150263737434559
Ar 4.934600239794816 0.8821434965228793 0.9242400497070575
Ar 0.8260561670051538 0.2026106221000289 0.8537608631723707
Ar 0.9095633528147223 0.9270135952609153 0.08228413700236567
Ar 4.871597590477303 4.973969199096718 1.5831996410048588
Ar 4.803161596476368 0.7665212081079862 2.2899058284155096
Ar 0.8250088551532582 4.999730274437824 2.2484502272931106
Ar 0.6720787667799242 0.8866232589620601 1.6889976084870055
Ar 0.1412353484428618 4.945104149720901 2.9724062672442164
Ar 0.10417690016903283 0.6314886473443339 4.129545616900722
Ar 1.0714967593450897 0.13811490569097076 4.220868379938451
Ar 0.849282665634306 0.9374328415596671 3.258251025634765
Ar 0.11542590683725812 1.6223256264746082 0.12070649533993753
Ar 4.792101281868237 2.5811778212939087 0.9294515058272105
Ar 0.9029262722033887 1.789070092480996 0.9261806438328565
Ar 0.8886602943074373 2.458711844687101 0.024315830684379067
Ar 0.03818832695250786 1.7359065903986215 1.513581598337653
Ar 0.10207244832357407 2.568398359910694 2.6435661350247375
Ar 0.7471100355581831 1.7565778617830867 2.602652452051147
Ar 0.7670222619722707 2.4741402995471953 1.7165169118656618
Ar 0.1469987667408685 1.879716807763839 3.388072937306845
Ar 0.02433020677546463 2.4651508294946014 4.225585843031817
Ar 0.6720376106105646 1.574995895064268 4.265048859302454
Ar 0.9327889683153622 2.581088752902038 3.389159951424225
Ar 5.035928364117606 3.367399303772996 0.10760634545648949
Ar 0.07277207705048837 4.275315608011599 0.723535512789219
Ar 0.8656493253237185 3.2880672149678167 0.7567126712610912
Ar 0.9344246273695396 4.330724378740603 5.02880842051
Ar 4.872885956319337 3.4246791394360083 1.5405917889799006
Ar 0.011804064169890797 4.137922333704992 2.3524109965615447
Ar 0.9203271805263709 3.2882077989725453 2.5031870476254485
Ar 0.8050879857216594 4.063542677113232 1.6902788746006912
Ar 0.2125545732930899 3.3688204661414494 3.5272776272320097
Ar 0.1875962628233211 4.620065551375686 3.994993311101731
Ar 0.7255342088472226 3.4198510620060882 4.354386312386728
Ar 0.8188197485017279 4.227151634173466 3.1982981706935045
Ar 1.6333964947780322 0.008830308797424729 0.059940991186070054
Ar 1.6817484472561817 0.8459025947376986 1.0448638701049882
Ar 2.4850041726309766 5.038273564210013 0.7292599193001696
Ar 2.441763110942398 0.8703645732421434 5.011260609542439
Ar 1.6589273848263122 4.8409475883852755 1.6537713106648986
Ar 1.637757594891487 0.6287992623145156 2.360800848811258
Ar 2.3392822402831777 4.832476362960846 2.544738995819279
Ar 2.455948098448009 0.6773620186197385 1.6246370000397672
Ar 1.6040180962049395 4.913137103967777 3.3409961558512884
Ar 1.66312646447209 1.1505877179778516 4.2654407486439965
Ar 2.5793999611510428 0.13316060358075282 4.072998151462963
Ar 2.3477405525983603 0.8914271203958611 3.4207623075672853
Ar 1.8997732717423315 1.9508472089044697 0.0188099702497363
Ar 1.7417561973725677 2.453633431860073 0.9620535650874025
Ar 2.411035678103786 1.560460922463137 0.9214374397520919
Ar 2.853416357573434 2.6091365923336944 0.015900163155948936
Ar 1.5795010042566398 1.6752117862852476 1.6938456476734673
Ar 1.6464163561123102 2.5094125385108526 2.2995189435531134
Ar 2.539269951504449 1.728278927622272 2.54998167097436
Ar 2.628673471965281 2.7467191805998024 1.77281378080932
Ar 1.6734408997490215 1.6292011042176262 3.1517647400828164
Ar 1.6526180528404364 2.274854312754768 4.121976795700885
Ar 2.705049374867261 1.7246557513096337 4.123073478467628
Ar 2.505165921265995 2.463681355665513 3.444140933928318
Ar 1.6701110335070377 3.2584868233566584 4.953335090845183
Ar 1.7351882886250227 4.155522277430849 0.7445660332452751
Ar 2.4473020691960152 3.298740447491049 0.8010372559666733
Ar 2.3366082199316778 4.196886374456528 4.883992935444878
Ar 1.5820667730596323 3.369793148781326 1.5437557758582132
Ar 1.6253489776205636 4.13259686546137 2.4338534815441606
Ar 2.59150473992147 3.3718649247847368 2.783186743258442
Ar 2.4573691497237404 4.021553756760753 1.7176820644331734
Ar 1.525151290579413 3.3835745105397383 3.4673162769723547
Ar 1.5039977561908051 4.184858454594808 4.182983057495791
Ar 2.4602822164256173 3.2980438133981687 4.0784274668005125
Ar 2.384641660194487 4.265800224380958 3.36722048037163
Ar 3.2257687634236545 4.813756176336041 4.91076023892404
Ar 3.2100076184557773 0.807682966610711 0.6549899205095094
Ar 4.100768760166826 4.9368454974881795 0.7888119945157547
Ar 4.205679817964625 0.9333568314962193 0.020705149973753195
Ar 3.1418948857516247 4.78826073551018 1.7651086554297897
Ar 3.220667434728681 0.7477835775926415 2.5752170797804936
Ar 4.089836848049826 0.047222329846836164 2.470078463723111
Ar 3.850184420365855 0.617618642452963 1.5462382051201582
Ar 3.482537707833683 0.07547108052329066 3.570286484512117
Ar 3.4327615799263276 0.845427003704597 4.268484179084861
Ar 4.255295374873301 0.024741108569498585 4.354431249919515
Ar 4.30391082031669 0.7319962158289897 3.2021553697470746
Ar 3.4311791337104243 1.7117011848432444 0.05320439115154731
Ar 3.268005569593207 2.4553589556353743 0.944982047974642
Ar 4.163148001902267 1.6876259433940701 0.9633763059057827
Ar 4.200362827771341 2.511265348229232 0.017236069282377725
Ar 3.4109429672990417 1.6465574367455789 1.9761342716104693
Ar 3.5445812459914174 2.5101282887048706 2.6548212897773396
Ar 4.337607194446705 1.782785530185444 2.7735458607370864
Ar 4.377586365067964 2.3688475180196593 1.8765020246433637
Ar 3.5078903264996595 1.6538800752137384 3.3644450336928693
Ar 3.410498081657838 2.6955199901115257 4.12170569785097
Ar 4.310421459546964 1.5824783121058767 4.046537845259051
Ar 4.2895410730464265 2.582134858187312 3.487256657209968
Ar 3.4932494075157634 3.379260594991397 0.09077502068214971
Ar 3.1739622389738433 4.121905878791192 0.7462790660262966
Ar 4.1159317570856215 3.390458111849701 0.8687668031613985
Ar 4.249868310611181 4.126274655917646 0.07713601074921012
Ar 3.4464825468591678 3.370818717335513 1.8401837011211313
Ar 3.307327812773361 4.458223654566795 2.747443901268662
Ar 4.326847422908876 3.2418216926683345 2.5949846481172485
Ar 4.141552091186402 4.336421017996331 1.6362113471934099
Ar 3.5088265167342803 3.451824699525521 3.1974746473921294
Ar 3.501227086848741 4.152043775486742 4.105950989746957
Ar 4.342925651119249 3.3499334717006253 4.351895439689534
Ar 4.222905508772596 4.302840247702518 3.216829419824844
108
step=5400 time=27.0000 Lattice="5.038789 0 0 0 5.038789 0 0 0 5.038789" Properties=species:S:1:pos:R:3 pbc="T T T"
Ar 0.006485661815785274 0.10330571638930915 4.993370995341336
Ar 4.965922591968002 0.8057231546111441 0.7294567278411384
Ar 0.6597664864764518 0.041735498835591515 0.7867221202307981
Ar 0.8235721860009892 0.7211030340803449 5.002048504105565
Ar 0.1064997110906906 0.1256325738442043 1.849521520211098
Ar 0.013551584889347212 0.9745099141822385 2.40586417448931
Ar 0.8325434093920735 4.9273629619919355 2.693614635406208
Ar 0.8812705622906135 1.0661696510851155 1.7292961509614577
Ar 4.996054565123892 5.00991880323408 3.3386380834196236
Ar 4.796735710901212 0.8711884653823271 4.163908354930513
Ar 0.7242296012322995 0.04291281734762206 4.169163130837381
Ar 0.6212875624187285 0.9149154431714344 3.414335527664881
Ar 4.874983374634095 1.8150977730036537 0.15324251121026572
Ar 0.2545116448391485 2.524392777215801 0.9387188317089543
Ar 0.7070157558844905 1.5170839548340094 0.5641546401699211
Ar 1.0272062888683893 2.616604573513523 0.21496529263973493
Ar 0.07642293438190245 1.6661977264749768 1.5005870411940887
Ar 0.06585891703598293 2.5463777553372147 2.3431974030806866
Ar 1.0939407132587493 1.7037193920432563 2.602457503523964
Ar 0.9256493223793679 2.4572079521446133 1.698260479626562
Ar 4.914520744548797 1.7438541248366697 3.275049406242314
Ar 4.953024145060807 2.402794842038479 4.085593098645683
Ar 0.648765872227705 1.7350900340855266 4.432672074967312
Ar 0.8511210300991843 2.6027899707503654 3.534337315017059
Ar 4.852891731417718 3.1897710270758797 0.13291146578790355
Ar 0.009953148369442987 4.27146107657029 0.8242186905658561
Ar 0.7677597918226303 3.564396670790043 0.7059535960309328
Ar 0.7357656722602289 4.30205025118863 4.973637527457103
Ar 0.06934775511972689 3.3991786701043214 1.4954267361250446
Ar 4.814376487268258 4.200749813206128 2.5315675802101225
Ar 0.8401444493712429 3.45275213379084 2.477546935126732
Ar 0.8255691701692605 4.199122737547026 1.6526103504456868
Ar 5.037718972020392 3.2461191551202444 3.3115764993358163
Ar 0.0633299248912603 4.274073998460481 4.228967982114654
Ar 0.7416285452105726 3.377931950316507 4.469054626654344
Ar 0.8390618058132934 4.107350606599305 3.492636103027894
Ar 1.686940907171027 0.07274265275110195 5.008061163750356
Ar 1.540834106683168 0.715640386672383 0.9234411450103871
Ar 2.46835325259484 0.15016390034452146 0.9747406255881377
Ar 2.3964356340572026 0.7685484947762938 0.018304233828150978
Ar 1.1760549911734823 0.10357714988280498 1.70385201282693
Ar 1.6568323274922983 0.542788383215312 2.594085122522438
Ar 2.5633259577032645 4.927271344263446 2.594918092785209
Ar 2.519553865241007 0.6605648327332633 1.9137546131059637
Ar 1.7901343054574543 4.937741617907143 3.505946569849329
Ar 1.5866382033599034 0.8589308548805867 3.9804608414106895
Ar 2.5438164948208013 0.03322279456910116 4.201760406570013
Ar 2.6293552214636806 0.6420298338137906 3.4090912953186536
Ar 1.6109833934331539 1.6136992307140205 0.03683513633870513
Ar 1.8205898726112923 2.512314553264317 0.8697660305185252
Ar 2.5755990508880595 1.63408152616428 0.7457295289705151
Ar 2.6809575241926136 2.606131941727308 4.974146673424071
Ar 1.842763465205985 1.5295614412822558 1.740060413576108
Ar 1.8677863430667745 2.530499630944689 2.4281659424976945
Ar 2.4664429225411193 1.3339450838626483 2.620754239604137
Ar 2.63900239442271 2.6975143618055095 1.7290158050951268
Ar 1.7192692443466258 1.8431947471507966 3.435861510887867
Ar 1.7937679834390228 2.6426442406162343 4.198003900252688
Ar 2.3766937045448637 1.7285114238456032 4.169292023505384
Ar 2.4681671387702777 2.608587868355075 3.452884812977099
Ar 1.8526728345380832 3.263427727736105 5.00256742614235
Ar 1.5461720226186795 4.366780825945659 0.8956368674936236
Ar 2.810326668435711 3.3499342922215023 0.8753863326701807
Ar 2.6817532095253536 4.083062525623471 5.009276012782261
Ar 1.6681210179110124 3.3763713363827645 1.7284158746752314
Ar 1.7666657563851835 4.278553374392212 2.6116114518077067
Ar 2.652315514272915 3.6029414765496703 2.40655668083118
Ar 2.414128234401871 4.386357935193316 1.6676419985920046
Ar 1.6491990035352884 3.367885371504459 3.3978331067182643
Ar 1.7012516404251525 4.062644783067204 4.178469933728193
Ar 2.5596305855322803 3.4282672086303276 4.222990024837779
Ar 2.5047762039375767 4.034396738353879 3.3381707590796745
Ar 3.212543543537196 0.014828787947159259 5.007457895280591
Ar 3.2866196674031123 0.7973984451508463 0.8480608938385497
Ar 4.095059290968871 0.04858310396221648 0.6515745967670244
Ar 4.206960207798001 0.9899342510514136 4.904654640295925
Ar 3.2980314873596956 5.016210233899099 1.6978506824154276
Ar 3.356918611249876 0.6663015506715951 2.579645463149003
Ar 4.215899822418296 0.12999236361995548 2.510152204854455
Ar 4.089613550442662 0.766256385954403 1.5936026223340916
Ar 3.4106244275330346 4.8783061571988915 3.424774731653471
Ar 3.3551712709912165 0.7581874944554516 4.15608448361093
Ar 4.239593289016296 4.999119004344398 4.102385550818952
Ar 4.263735101161608 0.8301463806412869 3.186549350028484
Ar 3.3740481711068013 1.5505006369734893 0.03387841611226216
Ar 3.325903294655894 2.2536544201731035 0.9443422385235688
Ar 4.198130113644666 1.6011588649183879 0.9901071013702828
Ar 4.10684040890652 2.4293497060800697 4.9647518890533995
Ar 3.1842359019854833 1.4906431593846796 1.8280884829086006
Ar 3.316193446626347 2.5378205680668606 2.487679046174659
Ar 4.301523325425914 1.7457948595385855 2.3940454044040256
Ar 4.30066888530661 2.514184975046325 1.6929788278722084
Ar 3.297658814735441 1.7732057934230663 3.26879765860785
Ar 3.419921463276137 2.726388834769667 4.220585298156278
Ar 3.9765776942349005 1.6915976720739287 4.041545349112307
Ar 4.123707149043805 2.495237662487936 3.1894242477979518
Ar 3.6757436154493863 3.4778399391871475 4.972725607573145
Ar 3.44546631457636 4.24412990135196 0.6978476255472364
Ar 4.015215728386108 3.1281170569260217 0.8092836530474785
Ar 4.333246221640428 4.247699082418073 5.011562312781293
Ar 3.570930646770989 3.4465296548306603 1.7713906037703995
Ar 3.4647277283799918 4.288237615394073 2.4738186606601933
Ar 4.288891451278165 3.2838251322209966 2.445453330586554
Ar 4.271693334637468 4.209498191829236 1.5663219525340961
Ar 3.4004272801882807 3.443925576258395 3.3837496791197474
Ar 3.4479230721384764 4.261482591473583 4.270865468462278
Ar 4.314774155207078 3.3104017349638095 4.219484161108774
Ar 4.2635656897326095 4.155339174637968 3.3906563701570636
108
step=5600 time=28.0000 Lattice="5.038789 0 0 0 5.038789 0 0 0 5.038789" Properties=species:S:1:pos:R:3 pbc="T T T"
Ar 0.10761202700156504 0.06565632343133473 4.902231146528352
Ar 4.8645953663768875 0.9752087904371386 0.9829065482392474
Ar 0.6886538019509597 4.947626032655055 0.7577743117491638
Ar 0.8333481225429941 0.8213131066520837 0.025730562214242806
Ar 0.01206680408772729 0.08288503956598484 1.6089437059241158
Ar 0.04122898909363767 0.8180047001549469 2.416041027904702
Ar 0.7919080643599076 5.036650389090934 2.5809530655908035
Ar 1.073478202693243 0.649693703993679 1.749667048212406
Ar 4.85212175286556 0.217209059341064 3.4021012460326934
Ar 0.1256612238258668 0.8443921930103259 4.149335284657937
Ar 0.7576625015732723 0.015299784375764368 4.093971917211771
Ar 0.7898918009347023 0.8170771862818463 3.3403307163450773
Ar 5.0198609004812536 1.484460366662768 5.032217786140697
Ar 0.11379424943038562 2.40469537731846 0.6187930192060459
Ar 0.9376824472263472 1.5329456424599586 0.7885140836097524
Ar 1.1457541447134374 2.5355998671534614 0.01834759533026727
Ar 4.813278672800304 1.771956317404935 1.7421546609435856
Ar 4.536453982986601 2.4984044136143524 2.5617000532557057
Ar 0.8879185141486543 1.6462966523321767 2.5153686339842456
Ar 0.7798091774583027 2.2486595357122856 1.604107364273601
Ar 4.883279762649797 1.7979370504968117 3.497362810448611
Ar 0.21897129176717015 2.5840032159945348 4.23229640582061
Ar 0.8889438037287389 1.7044940027665028 4.254358525132298
Ar 0.8914191270168943 2.3913025579161236 3.473344857411181
Ar 0.28567699400538094 3.2871276214954634 4.965177888626734
Ar 0.009346150747500585 4.211131566107619 0.813788746765666
Ar 0.9548598137877815 3.4411059201356835 0.9005037860785332
Ar 0.9779219707178236 4.262525533270236 5.019283221016796
Ar 0.11624954071696297 3.3448048708992375 1.6455342094512533
Ar 0.05140799386144188 4.229468911554411 2.6506469258903054
Ar 0.779878573673906 3.262788169762533 2.52269235361234
Ar 0.7500002055786196 4.242066881656781 1.8074040089399208
Ar 4.606911432597781 3.368665822303271 3.4926368862066557
Ar 0.1031396576609192 4.1116498013032485 4.107634283197361
Ar 0.9505842869845741 3.3113469312885395 4.132157140823045
Ar 0.8993106636479834 4.135552938811226 3.298433216518909
Ar 1.743617772020689 0.07853677799991217 4.879872758894572
Ar 1.6439647301887186 0.5757867687616504 0.787873687689524
Ar 2.5406869226205737 4.944591401649339 0.7369374329479772
Ar 2.544087889869396 0.7618017664478428 4.975792628453693
Ar 2.0020188976857938 0.033606075596958385 1.9255087496609422
Ar 1.8870446601744775 0.9128634368226444 2.4721401851854914
Ar 2.590351083329597 0.061852728372751256 2.907843785988005
Ar 2.546218753806191 1.0006813020992755 1.6439831786340477
Ar 1.698811225726857 0.018294450664722642 3.4408070843181515
Ar 1.8446685481916814 0.8065792411828671 4.072921425610449
Ar 2.556429693614556 4.818086019179096 4.058851523934543
Ar 2.631238820765055 1.0338110459248242 3.518891059865034
Ar 1.670537346986705 1.5370003772815988 0.06974086457705256
Ar 1.7703917987521387 2.339364159990669 0.9127675128454125
Ar 2.4880580593273414 1.6020965722617877 0.706485507318716
Ar 2.2822608795233283 2.4990586418331615 0.0069903758468314705
Ar 1.982658817531843 1.8098883570311661 1.739953280895517
Ar 1.6618980469603242 2.471667530849645 2.6626817360450796
Ar 2.6474909107776248 1.8586349705539476 2.6250901972926046
Ar 2.492218078353992 2.793541804613945 1.593516400049147
Ar 1.7523851292840695 1.665427589385786 3.3473377001788913
Ar 1.7237469635756621 2.237683428740121 4.197043637144872
Ar 2.5983211276048785 1.7398137354579484 4.2485100189391725
Ar 2.3440569860932947 2.623991997859849 3.4695032339076706
Ar 1.7346634925799866 3.509645191053953 0.05043168986338756
Ar 1.66777304578208 4.283165058556335 1.017039684912798
Ar 2.4774518689117073 3.396721817699802 0.7428616238560168
Ar 2.523185779949813 4.200443475524775 5.010799376434893
Ar 1.5175018132201388 3.0205455599518665 1.6564897324634422
Ar 1.6837787042261712 4.1517874692627865 2.45981156958936
Ar 2.492368568886523 3.2476394311802412 2.6127052904915793
Ar 2.471419597697786 3.837684559935756 1.777250692433058
Ar 1.6242591920984688 3.4319265062194093 3.251415237811818
Ar 1.6463444498408093 4.2154258902117965 4.240716372941918
Ar 2.331898989620019 3.3321243425195077 4.314979928808013
Ar 2.414677056653339 4.070802449938652 3.43305828177306
Ar 3.284941987322708 4.920968691613953 4.811062244651636
Ar 3.3356828852119578 0.9402933537534104 0.8912708906530075
Ar 4.24605981712135 0.12353596156616725 0.7921814050211288
Ar 3.997391084362485 0.9692387213292061 0.022668447803187223
Ar 3.4149581203677926 4.87199277079146 1.4824838929335948
Ar 3.215235444903936 0.85740081409535 2.4416072938980222
Ar 4.160903020173635 0.02950338885241671 2.3903291245364233
Ar 4.118463711758727 0.8670180518480526 1.6913560969804187
Ar 3.394421323915587 0.09219782007515662 3.5984534866533973
Ar 3.3388578584909214 0.804140588622941 4.267196874506792
Ar 4.191333693700182 0.3397332293406755 4.26993748503074
Ar 4.142132756794604 0.9656408229666097 3.1447854565303226
Ar 3.317122997553948 1.750055137888804 5.008783165284876
Ar 3.1104103782180816 2.420558767879463 0.7774789299556549
Ar 4.061409026033859 1.8082369739549864 0.6497591408437967
Ar 4.470345514468222 2.385988217904939 4.849051040302616
Ar 3.118871884478249 1.7063269262451577 1.6075469593053588
Ar 3.369760973570252 2.644394866072795 2.3978977558103156
Ar 3.991809792970411 1.6365048189947216 2.4298979689679685
Ar 3.922035369715099 2.373833301804386 1.467470044567904
Ar 3.40131750132393 1.7113693028420915 3.453031806752957
Ar 3.1996730589386218 2.676604007329831 4.331709904833904
Ar 4.103947978023663 1.5862671605456997 4.242103490158766
Ar 4.082501752619545 2.5295047792221976 3.6759722147480733
Ar 3.3219594014744294 3.416114367097183 0.11532426337162982
Ar 3.8797634832001617 4.118548342431656 0.7521549398782618
Ar 4.377364450160628 3.19675602280375 0.5035722952005953
Ar 4.345758584036324 4.369651739586238 4.832595209534932
Ar 3.510833351904321 3.560973373596144 1.5477575140177484
Ar 3.345440123326842 4.342913972650158 2.602158567411375
Ar 4.0945425146757035 3.4608126964486687 2.47503041204353
Ar 4.4304417156299625 4.280707665229524 1.6846234422109623
Ar 3.352802081270327 3.396140679152644 3.272991830232663
Ar 3.2682723616083726 3.946733794017738 4.207301160138192
Ar 4.147484441123985 3.446264301757258 4.495854089431186
Ar 4.183587697295783 4.408713641184818 3.7157128171623355
108
step=5800 time=29.0000 Lattice="5.038789 0 0 0 5.038789 0 0 0 5.038789" Properties=species:S:1:pos:R:3 pbc="T T T"
Ar 0.02886928157327775 0.21256312906722827 0.1563989463355659
Ar 0.033158559673312514 0.8954182294904616 0.9206386759255282
Ar 0.718246558644159 4.933062348782112 0.7661457423312983
Ar 0.8441281644924649 0.936117228217121 0.254452711402821
Ar 5.0244531470514335 4.985621041377744 1.6970636004656496
Ar 0.0598168424730742 0.7003108411389006 2.5639927348325555
Ar 0.8878435033212073 0.07110758545313572 2.601433467452129
Ar 0.9054257460733578 0.6741939861225914 1.690900418255038
Ar 0.2372215007673509 5.031001416772839 3.400763204671672
Ar 4.879565197501888 0.7530901602356871 4.222177017690913
Ar 0.7717591256498911 0.3259218766228245 4.205126054009831
Ar 0.8093111388160474 0.935093473427525 3.3646930768352012
Ar 4.944708530121115 1.6477487891441562 5.01830918448148
Ar 0.00855571359452842 2.6439894973750335 0.9400950075423562
Ar 0.7367826771852295 1.6894563795794637 0.9780297137161865
Ar 0.837063770180022 2.4570283616955373 4.980671680553837
Ar 4.934528126413688 1.7983413190101383 1.6622681751701165
Ar 4.791184648389623 2.514524448756694 2.5106589078861785
Ar 0.8301186569938396 1.6424196679039258 2.435556372371967
Ar 0.9126808332055377 2.62183410898077 1.62525075051633
Ar 0.05667133559547228 1.5930924486786224 3.245430588284473
Ar 0.07624314714587835 2.435394909591515 4.113445407391721
Ar 0.6204020617799302 1.4128234693874273 4.240739094988611
Ar 0.9128942953745864 2.2307928169961944 3.557701770300168
Ar 0.0968484100056767 3.4178549133057783 0.09529097838542712
Ar 4.972618432687175 4.195853135413168 0.9197581056468469
Ar 0.9774177566689637 3.4687052108518035 0.7736393847381385
Ar 0.5310255476730207 4.3626271075802165 4.959491847765356
Ar 0.08330427048039679 3.410634548752371 1.6681334322854817
Ar 0.04112108066757791 4.384191062897189 2.603171102507243
Ar 1.0912768807663529 3.4637158676586814 2.2987435751650827
Ar 1.1055152381570112 4.351333457348024 1.5719048098845345
Ar 0.006532035325159658 3.339439167314245 3.3182397201611025
Ar 0.11308242097901261 4.122603962132119 3.950201927138464
Ar 0.7061733950455593 3.262070070345291 4.2607669760301325
Ar 0.8821817120663765 4.025116514836022 3.2334477958377006
Ar 1.588696714258201 4.937838098401898 4.871578786922224
Ar 1.7577755239039392 0.9333066669379131 0.7521462572668773
Ar 2.4531872367915204 0.14423577396800094 0.8732218423320016
Ar 2.4962871801632662 1.0151105297925613 4.985921323266326
Ar 1.7114108840958826 0.15435472190167177 1.6049947260730049
Ar 1.6808105995896272 0.7762874498002214 2.4869858608512434
Ar 2.609903020776399 4.896493370687657 2.640030269923522
Ar 2.515783202249321 0.9946112401453389 1.7125155528004579
Ar 1.5932656101807194 0.005520868926168099 3.6967018923337394
Ar 1.5964864254085764 0.9780134122104208 4.376337016212503
Ar 2.5778953594723446 0.3219302391163117 4.217509624710891
Ar 2.6078069805348285 0.833213859465045 3.2629853595161964
Ar 1.7848067967725092 1.7728778763379796 0.06312210034974698
Ar 1.7419951778910527 2.640586399729109 0.8026499735821414
Ar 2.4755939326607264 1.6781423268420694 0.8583914408820592
Ar 2.567611238008921 2.441821321642395 4.919347528931376
Ar 1.7301419689805586 1.7201590379331377 1.7766625616205194
Ar 1.784151720413529 2.6299192113643475 2.4076183416556476
Ar 2.4704540503915733 1.5917680206064568 2.543060137910482
Ar 2.4578622062132736 2.418325209475567 1.5128403162343749
Ar 1.6629557956278627 1.5904594531791585 3.313096259182093
Ar 1.686350909103904 2.4088863912663907 4.231702696555799
Ar 2.5638475564616106 1.5559222809413005 4.144188670469283
Ar 2.3216161960561656 2.453066667317534 3.40579462668403
Ar 1.9651779511097935 3.247491423737004 4.938234496940095
Ar 1.8606105560563166 4.0783416031004895 0.5205289530848601
Ar 2.887618463995498 3.2449358244459914 0.6586558772552559
Ar 2.726220860859992 4.0007533952439776 4.916070104221029
Ar 1.7923469829986265 3.300168665799488 1.5888268331531967
Ar 1.6709359585017147 4.330618743000371 2.504208895375397
Ar 2.3585346387213453 3.463549163206271 2.5229156327248243
Ar 2.248942830536717 4.281458252208421 1.5722465949656448
Ar 1.5921870559292655 3.3520882731548 3.5562536987401248
Ar 1.4042986437838159 4.123582138830691 4.2964490788983
Ar 2.4500145198115346 3.2789238858478438 4.115351088040085
Ar 2.3844662730667574 4.321163017932807 3.4326513206720284
Ar 3.45125154812089 5.000293841209184 0.1035535919941008
Ar 3.267006483894677 0.8219026520920875 0.8014029031704408
Ar 4.299733532648024 5.037265740539504 0.9101757928204139
Ar 4.2192122653371085 0.8195325580847089 0.030611074907866225
Ar 3.4173888938704526 0.15884678911644004 1.730123158430655
Ar 3.417040836601083 0.8383586608139217 2.625160769218762
Ar 4.168211934031579 4.976388379873254 2.5630963438852956
Ar 4.370606534324936 0.7095809831531719 1.731093225179538
Ar 3.2968929518224455 0.009505644431786513 3.473548072501653
Ar 3.536241854218403 0.796914316547387 4.1974950472230885
Ar 4.292042570840424 4.936679992404244 4.418676551931735
Ar 4.348165212750889 0.6749372205131547 3.3605974345305882
Ar 3.3942427619898794 1.579028465720626 4.991140232907421
Ar 3.5438572288051633 2.506028005461623 0.6128574162576463
Ar 4.134662570379518 1.4645419066112588 0.9828487013014942
Ar 4.392063721221529 2.5539809927273436 0.02555330234600466
Ar 3.3221269531889286 1.6658594406420209 1.910246524213157
Ar 3.1853612713807906 2.7109519164926197 2.5427658224272154
Ar 4.315901835546539 1.5181889282504286 2.4120232925308427
Ar 4.006167922362376 2.6493941561111853 1.8245342993607965
Ar 3.397722100927246 1.8350764720491761 3.2677342068285093
Ar 3.1003417030210367 2.4110304771558533 4.1066567932267946
Ar 4.244950543197677 1.5514847898843416 3.9603671755967533
Ar 4.180108533273991 2.610192961069826 3.5575702259173965
Ar 3.441288402471241 3.230492041626488 4.713496391150075
Ar 3.2300923965430672 4.345153209187149 1.0205317237981806
Ar 4.1476166589313435 3.5063153859957574 0.9633015928794219
Ar 3.855268041742855 4.082356372218987 0.18176419587612092
Ar 3.0091844970381674 3.343750016986933 1.6890155022548716
Ar 3.2647965210014136 4.07187058010456 2.527788862541767
Ar 4.167457201131015 3.4954321756218287 2.4535643913394214
Ar 4.199338034917139 4.278786632728037 1.6614993829584401
Ar 3.256274570885995 3.286965101556403 3.3382451169001968
Ar 3.2601874739490446 4.1695053097403 4.037465580014051
Ar 4.482750819462715 3.3669282125001327 4.271307466569665
Ar 4.115880135777143 4.220045308004896 3.2490317138292575
108
step=6000 time=30.0000 Lattice="5.038789 0 0 0 5.038789 0 0 0 5.038789" Properties=species:S:1:pos:R:3 pbc="T T T"
Ar 0.05023148343910751 0.13021877507537422 5.031484156944511
Ar 4.9499924549211185 0.7848643273740136 0.8558817941817255
Ar 0.8505390164304303 4.941828699527738 0.8117716252839795
Ar 0.7963344095784803 0.8154406154719364 0.20068497465771512
Ar 0.05297643973458761 4.922762764248214 1.6062694810822389
Ar 4.890165050635717 0.4918719659371806 2.4995102267551914
Ar 0.8279548367229765 5.024006517771061 2.426161225010407
Ar 0.753674909711099 0.8391309003991289 1.773737792576017
Ar 0.11326680838078368 5.00836035994182 3.4227384043065454
Ar 0.1757777090738451 0.7437314375629597 4.181762759972139
Ar 0.9556869363693035 4.896701551608912 4.3947647029350545
Ar 0.683218684782665 0.8227658467661613 3.2057980693409465
Ar 0.07333873605364519 1.5805010681526177 4.843373218790371
Ar 4.9667398532832765 2.35097329070378 0.8118117190705316
Ar 0.9551748420113193 1.6180543269029537 1.0179102256752808
Ar 1.0187320617947435 2.5583435645880424 0.23417052835366062
Ar 4.962210950781068 1.7665372079406865 1.6840325031041528
Ar 5.017161143012967 2.520140483769404 2.571260837238581
Ar 0.7064211544110442 1.7823895134990129 2.5610245718267954
Ar 0.8385954947129118 2.4012561776612973 1.6774321522521787
Ar 0.042713552344239424 1.9163491730403972 3.5311961595536245
Ar 0.03384784884675353 2.8911529105785467 4.055512443250331
Ar 1.1970414896728432 1.4185298280445955 4.055345442046185
Ar 0.8742981081579977 2.594485140664899 3.207665682799623
Ar 4.897096003029923 3.098207124048586 0.00790223861755013
Ar 4.82854200842897 4.148305875285086 0.6300777012346997
Ar 0.4648621182076099 3.3628834914481374 0.9162364933451432
Ar 0.6622054830090502 4.150875164546033 4.960174035348936
Ar 4.820379917475653 3.347933653765255 1.8000710096835588
Ar 4.93699942734607 4.239860787286322 2.3435829772833263
Ar 0.8370724210268069 3.5764862346075086 2.482509737345237
Ar 0.8224386521460973 4.186967382534926 1.6559059802049156
Ar 0.009072381623700113 3.7014986317079535 3.2782032954474003
Ar 4.999485052617793 4.282649724438586 4.243064970078492
Ar 0.9858066790061188 3.2845906009129022 4.1830128109120714
Ar 0.8974225316865131 4.344022868042911 3.3303419489565806
Ar 1.7068541128294172 4.643714161525004 0.11710982261907271
Ar 1.7350847917131478 0.761362019445291 0.8757291197634475
Ar 2.4615475961759103 4.86847311179054 0.7629391286913381
Ar 2.672050951449764 0.8250920069059583 4.932461847199941
Ar 1.6963995041745041 4.921457689190289 1.6435022348003063
Ar 1.8030081206503943 0.9567254778031288 2.4841579456484633
Ar 2.698031488518088 0.09560283469309358 2.47113626307194
Ar 2.6867967002594657 0.880834858964312 1.7486181462778203
Ar 1.5150290498469614 0.2958942522521054 3.5574452175233637
Ar 1.726667502809595 0.6324683558370264 4.498678003375193
Ar 2.621207858657472 4.87881626260355 4.363308212421488
Ar 2.421687242056267 0.7991787987961559 3.415874401270486
Ar 1.6739856761094878 1.6828062077908896 0.21184459572974249
Ar 1.7886710583417107 2.608930146234494 0.9386868347286661
Ar 2.5631186995063078 1.5147907604555044 0.8280289009513235
Ar 2.5233226930850585 2.5850055473675657 4.705091193765102
Ar 1.77236977101959 1.704459004763055 1.4939184467377111
Ar 1.598945134016319 2.6647136994194978 2.5225042786321388
Ar 2.7661349197925267 1.6543806997155592 2.627906308666658
Ar 2.5612138999421314 2.5373015080407373 1.850908298246157
Ar 1.7152549130540753 1.7850324936332103 3.2081132286672687
Ar 1.6623859406453476 2.4464599679960184 4.2470926007177425
Ar 2.374309995128158 1.5084958825437342 4.105357839254935
Ar 2.2787921423631845 2.6579288664721306 3.4363085444149974
Ar 1.7055956679045903 3.3114656572737258 4.945490561468541
Ar 1.645317238540713 4.076533851240389 0.991259436241572
Ar 2.71089801329754 3.387880713002313 1.0428434592519955
Ar 2.576109184077558 3.972449085570431 5.018831854388059
Ar 1.4441365778496011 3.3285704478425853 1.6838443898574869
Ar 1.6932156255900626 4.297463471931321 2.518181057038789
Ar 2.4613649903046317 3.3121295342566865 2.6032716787353816
Ar 2.661399293560085 4.333467857021804 1.7224547233897058
Ar 1.555354381302354 3.451585090479945 3.213920495855566
Ar 1.8357563947853346 4.332417330840023 3.9471214754048103
Ar 2.4967104644326943 3.382703934110362 4.074930554270106
Ar 2.504797738777571 4.417872634031779 3.2269129484530903
Ar 3.3154361844399904 4.9725612476576835 4.995792808171971
Ar 3.408402614952587 0.7909158453187365 0.6269031817862553
Ar 4.1652070908824035 4.993132861076663 0.7444862884427508
Ar 4.201431676147791 0.8358176904467555 4.993366412107611
Ar 3.38245607682885 0.10320684418456731 1.4716246470686845
Ar 3.49574407352292 0.8593789456056947 2.414583340924104
Ar 4.160574740097489 4.849310452213021 2.7503618432786503
Ar 4.151932560877842 0.9109045169982448 1.6303266656480113
Ar 3.293679389632258 0.10343171341918463 3.4740928257876087
Ar 3.5003794728536035 0.8908746561879718 4.12372852981212
Ar 4.11588053711946 5.018073481661423 4.189461846236967
Ar 4.465837261387176 1.2230279224944312 3.288676835752108
Ar 3.161705844878181 1.8264847175249894 4.987543321729906
Ar 3.097402058470918 2.461371803162747 0.828575517849788
Ar 4.2538898601104815 1.6079866018549556 0.8403002259868679
Ar 4.069171062921385 2.3648145806947616 0.0907539502938372
Ar 3.3635223832541716 1.7217299103290638 1.6817910647876915
Ar 3.283244712051132 2.6106545698794332 2.6456853811013694
Ar 4.187675484944502 1.803171530917753 2.4622621631586505
Ar 4.105744426578477 2.439792149805456 1.6220676818326338
Ar 3.5028387046889886 1.7784197451015487 3.339286551535359
Ar 3.3782099792411824 2.548731850023574 4.061357821463804
Ar 4.206137720153535 1.8402341812786722 4.290297187234403
Ar 4.21255101809128 2.5863309366563088 3.399413924574179
Ar 3.4660412728181553 3.2976859694763645 0.05236628624472643
Ar 3.3654557210581535 4.199429723149405 0.8661687519924426
Ar 4.141737079203141 3.353373626534933 0.9471666987882078
Ar 4.106212967862389 4.163209861515246 4.903256822381872
Ar 3.6026808815705706 3.3224675788105253 1.883074879726813
Ar 3.3464628272050145 4.1358243092094344 2.5056825327962096
Ar 4.2300019852377355 3.360489333874503 2.6986859745551977
Ar 4.136642371233367 4.304558777319403 1.5998525470857405
Ar 3.2707669999283504 3.3744175931632947 3.3331463000040915
Ar 3.4064352165707863 4.1441833404257125 4.184858167789615
Ar 4.158491162111049 3.2962115353847508 4.3046948935193265
Ar 4.162386176153519 4.098384689503707 3.41229833781605
108
step=6200 time=31.0000 Lattice="5.038789 0 0 0 5.038789 0 0 0 5.038789" Properties=species:S:1:pos:R:3 pbc="T T T"
Ar 0.2865763472068538 4.6691686338634435 4.873446870112793
Ar 0.4300529441409345 1.225870389228176 0.911546946976606
Ar 0.44764625939588487 5.005762596849811 1.1617015031386684
Ar 0.7572741276721074 0.8749071857212037 4.8449642457519335
Ar 4.90332261443852 0.1232898233529771 2.14557201249936
Ar 0.08333247441277145 0.951838867849129 2.7989704495719754
Ar 0.8409067394431691 4.92898990692522 2.662883948267461
Ar 0.6630536245115194 0.795468463583429 1.9017531099977818
Ar 4.924177672649009 5.0356531971764 3.255688880085675
Ar 4.94921466046075 0.7467680206363346 4.021215382379679
Ar 0.8897851628631972 4.852870889724865 3.9650479356922417
Ar 0.8641359585611174 0.8988096113846243 3.667653537588008
Ar 0.1504140429861686 1.8197472042242695 0.09804625074042327
Ar 4.999948484923702 2.768533369302457 0.664129106823962
Ar 1.1441771784950534 1.719189008449946 0.40729058238686067
Ar 0.7864950540108302 2.7092893215065645 5.038142933052956
Ar 5.0369981895423965 1.677847765708166 1.8434324871286356
Ar 4.94999060805529 2.5512901442684424 2.4788110458637775
Ar 0.753439204435373 1.7799578699587495 2.5543825169457937
Ar 0.6141441132489489 2.4027213618383523 1.4118169216196546
Ar 4.977119421716895 1.8106393300621229 3.3637599466129138
Ar 4.767733099670134 2.6501446098478643 4.344472573284059
Ar 0.6606341916718143 1.9014900268745578 4.237768615124095
Ar 0.7439784975300716 2.554301926374659 3.3409160197758125
Ar 0.028161811736261477 3.5564056118574294 4.877625508365394
Ar 5.0220241062016004 4.0430898884892805 0.8042202018205115
Ar 0.7960277872086885 3.388484942980232 0.8703279422354956
Ar 1.1602983911218383 4.028668949437407 4.97401276110996
Ar 4.994706066604675 3.2886666901189394 1.5626140332289877
Ar 0.020358067119543913 4.044497382241858 2.483927479704246
Ar 0.788442863062148 3.229250878999261 2.4212199799495537
Ar 0.7361190799292596 4.130031650099316 1.6104510495929263
Ar 4.7585820327798505 3.4511232474486047 3.2378998770309075
Ar 0.052451241938058356 4.132199084098414 3.975837775291503
Ar 0.7751501969587222 3.355831564032519 4.129893543100288
Ar 0.8784505827778326 3.936669500196425 3.2504110816883505
Ar 1.5331812969781056 0.26769431718623143 0.11813000699053178
Ar 1.4751638156389797 0.7387057810720339 1.0575359146872005
Ar 2.3781131163155083 4.834947817638908 0.6270453417332449
Ar 2.5823395845086945 0.6686677777766882 0.08308604330599108
Ar 1.598290442505731 0.005110896984670121 1.7801457116823936
Ar 1.5547013653211574 0.787143053830488 2.67413736970766
Ar 2.47679901283001 4.978140264067296 2.4318618594042487
Ar 2.492902623605172 0.6212987470149605 1.3259405569175238
Ar 1.9016022671111554 4.979052246816052 3.463007261806562
Ar 1.53585779869184 1.316316460196914 4.319080913406369
Ar 2.59624926806298 4.81011260565432 4.489973012994931
Ar 2.535826414224827 0.9220118188918678 3.5362701243013728
Ar 2.0219103408727754 2.172062966337491 0.18743041665261054
Ar 1.5740850578152752 2.6306192208944914 1.0281566861826839
Ar 2.2511583098486554 1.5652579431269207 0.9780723167188722
Ar 2.881922437219742 2.5739879097427942 4.851536839568435
Ar 1.4283933677905614 1.6934988953451318 1.742858494154331
Ar 1.631199128107827 2.4511353186533897 2.450024127584687
Ar 2.4286013561653426 1.670513285825892 2.252927536259597
Ar 2.4929441649380206 2.5352312448608076 1.6329451656456655
Ar 1.8143809802205173 1.651022756368465 3.278368026089815
Ar 1.6197557169288401 2.5864308432247607 4.006303396184207
Ar 2.5317735813155835 1.8372224966615769 4.145434862922074
Ar 2.633170780339684 2.6379516720708973 3.4529685247267397
Ar 1.7883512877283108 3.1651349329205254 0.16573132562910595
Ar 1.4543530975060253 4.249729554032737 0.8578412648708604
Ar 2.661372660803364 3.2856305895157405 0.7618697877098161
Ar 2.265856571632515 4.0067223583216505 5.005061616367997
Ar 1.5376951113145703 3.483727003120479 1.7599712728686419
Ar 1.6269073832803074 4.297188059589673 2.5878302575174468
Ar 2.5069437798689114 3.302027454938528 2.3762057223971054
Ar 2.5490576811190073 4.25450524238985 1.6357651086118983
Ar 1.6746233224924707 3.283719195777679 3.220188296439722
Ar 1.8092722965020043 3.8898704274859157 4.041132659291146
Ar 2.785337402475817 3.5153950955112947 4.233869714262387
Ar 2.5493741929861233 4.064960252160477 3.3596534265892486
Ar 3.3393774193010684 4.961029078023884 0.1312508497498369
Ar 3.47867140485902 0.6664014692915197 0.8961026219140359
Ar 4.483179171205593 5.021430895932313 0.721995976292368
Ar 4.239718250550008 0.8752795726048059 0.21794444569555885
Ar 3.641416442761784 4.924325186442998 1.5434962130634668
Ar 3.2003344620817464 0.7406275394507549 2.436490139426418
Ar 4.0978842071740855 5.009201567719236 2.6323049237718448
Ar 4.650368990823516 0.8151866734603921 1.3518957640909377
Ar 3.2767752891082824 4.959871871163758 3.4984051988868514
Ar 3.4379806821486016 0.8434615728670435 4.441228760847216
Ar 4.299785888341315 4.917350595483251 4.247823356946661
Ar 4.022599871319428 0.6332883932991455 3.4270190541196044
Ar 3.4888876598373795 1.6417722022749122 0.015963298274288946
Ar 3.184733180728448 2.3653951216433486 0.8000757714158185
Ar 4.416164010475069 1.7545882564667679 0.9037765802872075
Ar 3.950257800796054 2.58771871420811 0.04920457638964446
Ar 3.6127795151179063 1.5300807000436345 1.4748792650682214
Ar 3.360505065869038 2.4726230398860194 2.6401815907739508
Ar 4.159226810200071 1.1705912167052006 2.347291018860045
Ar 3.9800449237461866 2.566403150112462 1.566780582412138
Ar 3.3093168465939633 1.6462997139398339 3.427029391747376
Ar 3.521641992765005 2.3941634100284253 4.0646883681726225
Ar 4.2715449788290485 1.6116873383041694 4.254245169850424
Ar 4.166938150988705 2.618433120721783 3.3714359016128257
Ar 3.334958654433101 3.6523450339492562 0.015193153614094415
Ar 3.4036038472816212 4.216164051736332 0.9222971389661841
Ar 4.108759659202443 3.378421174250999 0.7854273793149648
Ar 4.240582685098058 4.2689017786520065 0.11446101110998645
Ar 3.470686300141394 3.525378656371546 1.712440316613241
Ar 3.3033953685393898 4.349576645397226 2.5921496475056034
Ar 4.164578686563099 3.398644183493159 2.45502773018163
Ar 4.492867022040482 4.359000276255934 1.6729159422538478
Ar 3.4110370479062477 3.403161871414755 3.238060599241087
Ar 3.5078536188708807 4.304233253176615 4.320924603401628
Ar 4.234363587225003 3.5985983263916737 4.26185231164594
Ar 4.09455074479078 4.373463376968786 3.3545311854316875
108
step=6400 time=32.0000 Lattice="5.038789 0 0 0 5.038789 0 0 0 5.038789" Properties=species:S:1:pos:R:3 pbc="T T T"
Ar 0.06677449813286164 0.08331862791266242 4.853323248692415
Ar 0.7706858201765011 1.644602517665373 1.1576678523878006
Ar 0.6809975295560845 0.5023087677976174 0.641172768393737
Ar 0.7951952350245751 0.728223679818284 4.494582313257536
Ar 0.03416245306193028 0.16163468236911346 1.8012455598748132
Ar 0.12694993030477647 0.9911098561638209 2.6579651164562166
Ar 0.8119626816410115 0.23518183237524892 2.609211164839231
Ar 1.0323865747430097 0.6674425565220156 1.5744197243828177
Ar 0.018048853609597446 0.23137656074352222 3.474803913661843
Ar 4.756700091017659 0.9785826420440313 4.244766252436687
Ar 0.8731817422564553 4.8528865600241895 4.060242733486692
Ar 0.9575033795623981 0.9372986128998853 3.3929558819967087
Ar 0.07211251261478276 1.394892859596511 0.08510831738383103
Ar 4.8078535432316585 2.5342501686422216 1.1486611956691029
Ar 1.219114470015457 1.362728610945901 0.27278113758367023
Ar 0.834003625430617 2.4903156177314356 0.14914768556382665
Ar 4.920605748536897 1.7059476284742294 1.9099010847693518
Ar 5.00628970112916 2.699660095048839 2.316061385820447
Ar 1.2706235788359617 1.3935413216361305 2.3281802916585606
Ar 0.846952182908362 2.5849228877832604 1.6593777104110488
Ar 4.625721922007794 1.9044188653655718 2.9428510240985495
Ar 4.943356984409538 2.195506262141417 4.114707289070213
Ar 0.9464020786070009 1.8343131953068876 4.26635722761261
Ar 0.7218957109758588 2.1630552121366415 3.058898958159108
Ar 0.06597909324765422 3.3768625531213807 4.918075248510376
Ar 5.037650484555563 4.459441548776964 0.8562199756856144
Ar 0.65347910876062 3.35902976077848 0.7860568519700389
Ar 0.7895607853842044 4.133817879430034 4.8966153542081585
Ar 0.1864753237667108 3.756456700802829 1.8448634724941313
Ar 0.02879185050424934 4.5554910543426255 2.730436298201649
Ar 0.7828750407007442 3.2886497663357708 2.584833995539538
Ar 0.8984837401754706 4.521570752073534 1.4676108792324427
Ar 0.012867402765563682 3.2460013707405384 3.3816119047948177
Ar 5.008416561111555 4.294286305825156 3.975328853562505
Ar 0.7210352574610914 3.074557953226041 4.217507362085969
Ar 1.0193652052473183 4.093682962883315 3.32108196545886
Ar 1.5600029802217243 4.950701523937124 4.887039328165108
Ar 1.7108974215994845 0.4379521640198194 0.7805873903782347
Ar 2.5296886949927084 4.802697668681731 0.7860612384889784
Ar 2.394885766559979 0.8287714027566748 0.21457695538418067
Ar 1.7516965984819997 4.9250841819327205 2.035951663916019
Ar 2.0295566127010343 0.6942816475706491 2.6444216137695267
Ar 2.857347218630861 0.041684586930714584 2.6150780358940255
Ar 2.4848078104439133 0.6366967969139798 1.5051058607908534
Ar 1.6676189241409791 0.0076436973736163155 3.399846061637083
Ar 1.776125755757515 0.9388871846652792 4.280239656407273
Ar 2.482750364793444 0.07870012898970588 4.335993182098955
Ar 2.5458344585434305 0.8155276372705813 3.5446097797197944
Ar 1.955629916940348 1.9619794574282994 5.0106758757351955
Ar 1.7183966411888616 2.3289460719792294 0.9400632182530382
Ar 2.7124794118239697 1.722163100234493 1.0036445352526444
Ar 2.556576496384426 2.840821733398474 0.4344839567788254
Ar 1.809693889867223 1.3233739615098719 1.2289218430384363
Ar 1.733676992349947 2.4983597150137755 2.364597891412485
Ar 2.379315866900506 1.6712805787631801 2.089710564906582
Ar 2.5938570602759476 2.6098516454032965 1.653078066300247
Ar 1.9081218592305873 1.6209995635862706 3.3543903171262706
Ar 1.6164316199202742 2.6189226059001482 4.341411426713345
Ar 2.548920671436497 1.646191299422365 4.205593117273568
Ar 2.4621371227038993 2.4931124969326683 3.2452690789495073
Ar 1.5242029373907233 3.357403396251093 5.036408503891053
Ar 1.455992689983423 4.166196050293894 0.6087884770313002
Ar 2.3462004691291924 3.607202926778756 1.0531740803311243
Ar 2.4131207888197017 4.137340766357429 0.10370095111559283
Ar 1.297094207417619 3.534558227667186 1.6642941237797402
Ar 1.7315429771330875 4.023433499856794 2.558544931304978
Ar 2.580303050156546 3.286422971630715 2.533803474528837
Ar 2.5288749495099996 4.2812189982814886 1.7787340503661226
Ar 1.8142311110441793 3.2207029802130314 3.4574295855587276
Ar 1.6455215503746246 4.09629347122691 4.235643190746996
Ar 2.656387561109198 3.395225759685741 4.477561918893331
Ar 2.4072511571478743 4.264476667534005 3.4826709791393182
Ar 3.378013712258354 4.9402200119184165 0.06352106543419753
Ar 3.307859654390717 0.7837367318284479 0.802221715463947
Ar 4.043426220039505 4.942510481008367 0.8582816253989524
Ar 4.014028158513014 0.805843612969976 4.910064410620242
Ar 3.4205463372153018 0.03189746942390467 1.666802552611447
Ar 3.1745570472587494 0.9754601630434816 2.6323119569656908
Ar 4.003877674378971 4.765028812124474 2.5347118511826645
Ar 4.594556689313522 0.9440073346534434 1.1210036125863772
Ar 3.2325819698964815 4.949409680604576 3.4852137276766837
Ar 3.2725493079500088 0.9115849666283754 4.270007971209342
Ar 4.232367270136473 5.023630889388526 4.095698064221671
Ar 4.211872122674916 0.8534742462076429 3.2594592238783333
Ar 3.2439961414219995 1.4956362127771123 0.10123050986306334
Ar 3.4684073152497845 2.5268229946262886 0.958576940245749
Ar 4.139082874414202 1.683530186804696 0.6136335478305772
Ar 4.270841597998321 2.5954194844542635 0.03538318538871724
Ar 3.493556569298788 1.4112056009653968 1.6822757599335274
Ar 3.214288714117802 2.261747833536652 2.4041834666307698
Ar 4.108570223354661 0.5864273260263649 2.019907762808562
Ar 3.999115270150566 2.779055303510156 1.7603170072628729
Ar 3.301673553797767 1.6939844897734528 3.4672020660029705
Ar 3.2546613315168758 2.3922396347738086 4.319439562425509
Ar 4.011020628421294 1.7513515341901866 4.300925872076287
Ar 4.09197542818616 2.530273436814691 3.533612577562894
Ar 3.4528945362943637 3.5950765526632105 0.12159074321925671
Ar 3.382221442033847 4.165676881917835 0.9197550415283118
Ar 4.366838707241842 3.62800077403312 0.8052785736992811
Ar 4.280834120847767 4.327555507955538 5.014313856235349
Ar 3.3595893482423564 3.563927494179014 1.8519676129292644
Ar 3.1775269517899596 4.132405343931056 2.728961313636709
Ar 4.142147451355113 3.4239116391526263 2.606839864843574
Ar 4.335275002057437 4.313861637679967 1.6416597097097347
Ar 3.2361247060086904 3.2991299648359735 3.4909569775000175
Ar 3.188978684033964 4.176116468522845 4.2026993281486495
Ar 4.201325793513847 3.4024281268987138 4.318790693876589
Ar 3.9169775678688166 4.129519378270193 3.4090463288706583
108
step=6600 time=33.0000 Lattice="5.038789 0 0 0 5.038789 0 0 0 5.038789" Properties=species:S:1:pos:R:3 pbc="T T T"
Ar 4.931010114858032 4.716293036098908 4.890770884709048
Ar 0.7911030119171845 1.6873539761945064 1.1489226843955491
Ar 0.5276130822945581 0.3377883256132931 0.6526631010902726
Ar 0.5532062571929537 0.8095169423399159 4.650852590781353
Ar 4.993355976802839 4.691026851124325 1.9012673506051438
Ar 5.007341859267088 0.8939855384220362 2.4851374040591216
Ar 0.9586429218911612 4.407565919748921 2.6582954067183877
Ar 0.5175194703862328 0.7449867547865422 1.6073927694687051
Ar 4.97843943313719 4.991217705350582 2.918280436854099
Ar 5.025135943087829 1.4650964775920192 3.689317048815992
Ar 0.7787925953831356 5.017044049547204 3.8687762031135025
Ar 0.8619602775539149 1.0207733857993158 3.3855090943311965
Ar 4.965775829755757 1.8452231366883787 4.9962292029379025
Ar 0.12931439672857487 2.4834715615725584 1.0189682157761615
Ar 1.3635202308526349 1.0578956749852704 0.4669455896987481
Ar 0.7259230295018356 2.698547015491513 0.12635505206304878
Ar 4.808987128335254 1.7926838253263162 1.7447140012331563
Ar 4.796904560284369 2.680754048976548 2.774632974011901
Ar 1.2541839885456132 1.4886409432252186 2.244837974283389
Ar 0.5755598213014069 2.4494708200063076 2.010371733980463
Ar 4.245447859310815 1.8791776382619907 2.7412379200037544
Ar 4.8024234045349825 2.47558687848688 4.2034044566519295
Ar 0.7742246172532409 1.8893911845974054 4.387771882562088
Ar 0.4476755687430716 1.7994923590851233 2.7972464089145874
Ar 0.0743871608942367 3.621530329916929 4.78346296203863
Ar 0.06984907827482982 4.288006300304221 0.8552609791164546
Ar 0.7540016302748519 3.4925682317301 0.8917355296448379
Ar 0.8127668166595154 4.328067696763002 5.01158828258804
Ar 4.934086356682013 3.51654280694662 1.7182781116580037
Ar 4.892709020576493 3.7734051162076856 2.739547926357499
Ar 0.8498454158558639 3.346950756756396 2.467228192021133
Ar 1.0498134614878056 4.485375631996424 1.4839586864046437
Ar 0.5831735885251645 3.1745143537714435 3.9196358042597215
Ar 0.09490445127601455 4.262206723657544 3.8024583939669943
Ar 1.3976626765171056 3.4787950693026177 4.6482965477195295
Ar 1.1916030848300725 4.008079703830911 3.6660056788289532
Ar 1.3450262832544546 0.1974197948425346 4.899410792732851
Ar 1.6777422870676568 0.10069531977484186 0.8489755746424728
Ar 2.9019264680028196 4.890162817721812 0.8657114114914383
Ar 2.472816620459802 0.5529482847078477 0.1759079111273795
Ar 2.1026373323085275 4.9711952904220915 1.8249059194032533
Ar 1.1664216097044302 0.361162211163008 2.347288560623768
Ar 2.606628727972456 0.25087775951770946 2.763016431404919
Ar 3.025919058998692 0.5997426970514016 1.8278583902870094
Ar 1.8514600187302728 4.8612879924098165 3.4037346708548912
Ar 1.5079129256823351 1.1732351291450662 4.359438670974774
Ar 2.162363498358446 0.3819405322463679 4.210344949555125
Ar 2.642445237052272 1.0038223720311494 3.5368957498003692
Ar 1.508972254766254 2.0359642266527036 0.05293460951426307
Ar 1.738018901167623 2.0329719238171626 1.1722979161316762
Ar 2.5684976857376425 1.3537105916564884 0.9023018265454118
Ar 2.627402567513246 2.4816446054219288 0.37309432269622705
Ar 1.6980614514696453 0.9081654787630357 1.5170933434431455
Ar 1.6161550143241683 2.617217726834263 2.3415461306100487
Ar 2.326908901439056 1.7396557673065685 2.067066732753287
Ar 2.335400116709395 2.8599540571214455 1.3397969205125746
Ar 1.7952250618474244 0.9511728271611631 2.841353728255382
Ar 1.3512224618057043 2.3466615721707424 3.636051452356986
Ar 2.527195932186613 1.8162397449304672 4.546723024371358
Ar 2.1961364665634986 1.9619166718975605 3.1470050053657634
Ar 1.6062992103534774 3.0308496006400873 0.5115777030398095
Ar 1.6409054649721972 4.072849953743991 0.7417378740588996
Ar 2.6645681202299145 3.8909194880942035 0.9953132450996611
Ar 2.54227911788738 4.534162079445954 4.986742132219336
Ar 1.6415359676254813 3.6329966338973207 1.7886245072591447
Ar 2.0885065031145014 4.204467262429205 2.5559881113221645
Ar 2.496297635355524 3.2555831345300033 2.4234005330944948
Ar 3.020562918193431 4.3689785721874825 1.9625634050784908
Ar 1.7586069008556195 3.2944785700633 3.2150299687573107
Ar 1.7136095746225406 4.479531579087211 4.412580662081314
Ar 2.1791900682142886 2.8302008861272516 4.266493682105643
Ar 2.3751455134768293 4.052641915605402 3.7000298643478717
Ar 3.7293798747522877 0.0005100066498189462 4.7857601711783255
Ar 3.7174242756422164 0.8330548057572346 0.8054323819182283
Ar 4.486042651187794 0.17438411453167965 0.7210668652939694
Ar 4.368651437186886 0.851962725573856 4.935841218214919
Ar 3.90505135274793 5.019858068114625 1.603803035112056
Ar 3.248872089832657 1.3029848533557051 2.648177550800141
Ar 3.6697273915942983 0.3211245076266883 2.7116570346005693
Ar 4.904405617080445 1.198757841289952 0.8617210123774619
Ar 3.062903576531444 4.983318128060397 3.684559725568552
Ar 3.181055578763884 0.8642835086439009 4.425868025817881
Ar 4.4944749103076616 0.23730381843716797 4.131599536727342
Ar 4.0935182613444185 1.0330642267677166 3.430901295488394
Ar 3.4346208573772152 1.661970347420514 0.2429984788254263
Ar 3.4603974342454054 3.080981183955854 0.7637618475390414
Ar 4.2034182821039305 2.0446361833179125 0.8736196694929453
Ar 4.182791351041286 2.8688112551983314 5.013463079379364
Ar 3.5181296316886304 1.648029056355672 1.5869281066282062
Ar 3.2113675664598658 2.3707911402039774 2.481150450328407
Ar 4.253629694083809 0.9322013665314717 1.8728449026581282
Ar 4.139717425179261 2.7567352344796854 1.572120843185599
Ar 3.0745778287448773 2.0718475902248623 3.643405519413003
Ar 3.1931040579406638 2.7391123572196543 4.407369005193
Ar 3.849131311776056 1.6631528068176398 4.3349958946616125
Ar 4.012925649386634 2.472779125359041 3.539916245472124
Ar 2.964908070813344 3.53211561137667 5.022189997280624
Ar 3.7839891726353816 4.074563833045705 1.0482773105382697
Ar 4.649005798124556 3.4401887839598797 0.6615094236595913
Ar 4.060016418647265 4.063002635323303 5.0042699332970635
Ar 3.3785020931952245 3.3619630218237537 1.8456788982880057
Ar 3.13085985065128 4.155070626501242 3.011105877262816
Ar 3.792036343703156 3.2473919191573195 2.809898760965756
Ar 4.034063561812277 4.2041921331021355 2.2672984736390727
Ar 2.945671645632635 3.008251649162937 3.391692123805745
Ar 3.5293237078630066 3.7886455206324507 4.118791478959808
Ar 4.452151024906177 3.4044471763828317 3.677075186204609
Ar 4.096234932627672 4.52543257462837 3.3560061510507477
108
step=6800 time=34.0000 Lattice="5.038789 0 0 0 5.038789 0 0 0 5.038789" Properties=species:S:1:pos:R:3 pbc="T T T"
Ar 5.027944868167269 0.19701329412580873 4.828344837308197
Ar 0.862222101599679 1.4976197048449613 1.2284846726188865
Ar 0.9881226192396888 0.4508569706945343 0.6909166022832163
Ar 0.628924425859149 1.2866165716844988 0.22710866544677918
Ar 4.8010218307802175 4.811671098966241 2.0991787919251794
Ar 5.010998816982467 0.6493597227983074 2.626189251651971
Ar 1.1993313328685655 4.329741715067924 2.5038358065154656
Ar 0.33470140045631147 0.6305326324916453 1.5163975742958289
Ar 0.45861656817978647 4.817082419849786 3.0729504205202502
Ar 4.906889977751223 1.2263185770269087 4.3947707111231225
Ar 1.0661512575404681 5.004222934796035 4.67646894820809
Ar 0.7176390099782031 0.6699104747540782 3.8781651486442597
Ar 4.777759117573611 2.0938173846317296 0.12858835908717456
Ar 0.4938109405125617 2.574192742490072 0.7503061076248179
Ar 1.654244086779315 1.4006275730631812 0.4903887770054101
Ar 0.4130026230196973 2.802319230919627 4.7148947637514
Ar 0.03827980834977628 1.8732957264727617 1.8511026514625253
Ar 0.06222857133537461 2.3916143078759875 2.701011021980072
Ar 0.9965742121680624 1.0311458231456199 2.305935443647745
Ar 0.8493499356328087 2.5891666799181756 1.8173162593265073
Ar 4.151834804476332 1.9017953991226146 2.3701630442285153
Ar 4.87121885161539 2.2420492244643135 4.041283042506414
Ar 0.8363861550206976 1.8219350781133385 4.237879771775373
Ar 0.3087598646424686 1.5680692045257896 3.3833956262027067
Ar 4.380978051972636 3.7246252761591587 4.650244278625868
Ar 4.697110881647584 4.270758005978619 0.5459576771131014
Ar 0.502656129482299 3.5910447133967605 1.0071363959793183
Ar 0.828451425353085 3.883326031158455 4.804545866437541
Ar 4.807875533665447 3.7136420451042262 1.7736011948757189
Ar 4.996222652778223 3.855614641391284 2.779163530037027
Ar 0.836451448168157 3.298453267087729 2.6161543880525775
Ar 0.8176356933022085 4.6228241196000885 1.5803545751348267
Ar 0.8537510433241486 2.9211297557917875 3.722177067898756
Ar 0.060006549752573766 4.268780565591805 4.189738312411183
Ar 1.6253376236989834 3.2121231927961227 4.435253979449477
Ar 1.0471486581053768 4.199641393312141 3.72593284598829
Ar 1.4663682546769097 0.975336240414513 4.572907504223518
Ar 2.020651319516844 0.376266038505202 0.43660993057993747
Ar 2.6935212692553057 0.06247158709414677 1.0912522684782697
Ar 3.143907379299957 0.471671889013005 0.16014273573055168
Ar 2.022941228586691 4.533663035660458 1.6476794744971723
Ar 1.4737904571521676 0.1912141255412483 2.699774946445673
Ar 2.5750557050424066 0.13490718294612955 2.6955233984391676
Ar 2.9209478461351526 0.6970995315789315 1.8250664995669352
Ar 1.7029603776369127 0.40976635758474905 3.6422314666525715
Ar 1.4932194506343894 1.4427384475330989 3.4789382181291635
Ar 2.33409423389385 0.3130471045405623 4.4607038146628035
Ar 2.737149990539701 0.8805301999067252 3.532927142478641
Ar 1.48181400585601 2.237610373645551 4.881559424301545
Ar 1.525764630698685 2.320387975389796 0.9760712575871231
Ar 2.5702763638630004 1.1816198521136296 0.8414462949953405
Ar 2.386865793189421 2.3642642904116693 0.3952085722766502
Ar 1.7370998088205518 0.815453443639611 1.440506673164444
Ar 1.8419365076495502 2.8509148712554584 2.4442867055453625
Ar 2.058467786295979 1.7903413666759356 1.8087542433026362
Ar 2.3626018039299512 2.830171676888566 1.5263238142199183
Ar 2.0237625632268004 1.0452436767320463 2.5161156840886103
Ar 1.0923263589822694 2.127971453953858 2.66722048035069
Ar 2.427850887032535 1.5109022259434934 4.59124009908618
Ar 2.3152004849155956 1.8718125923892968 2.9871051837928415
Ar 1.3335605152898482 3.2307633527241397 0.45803376080788955
Ar 1.4675369569262111 4.33881361291317 0.735219381847784
Ar 2.517273033964753 3.8979762042312327 1.1075983754191154
Ar 2.8572900782039166 4.5077925165167425 4.790238947043436
Ar 1.5005402941851766 3.5903746534446337 1.5816120863348615
Ar 2.026745585768644 4.474096403251488 3.4255865351463863
Ar 2.167043031302914 3.8792236130859714 2.418087873223574
Ar 3.0661016145762625 4.514215373889417 2.0721074829113326
Ar 1.895761062560232 3.439498244727066 3.453686601901066
Ar 1.837800501974379 4.347508561532216 4.438224979441135
Ar 2.137816253186476 2.3658604794735685 3.828044368498986
Ar 2.7278323326556873 3.7126154903346937 4.05028652440653
Ar 3.859480565566135 4.775385719199194 4.7956029722795
Ar 3.5762994709902953 0.9308129851086466 1.102486015220219
Ar 4.651865536212135 0.3152171060185468 0.7949590556159126
Ar 4.058325050502293 1.0904233897929383 0.14875718368982743
Ar 3.8523162585232735 0.05511733842213178 1.595748798163394
Ar 3.273810540417931 1.2182185515891182 2.6803356856560328
Ar 3.852516136760015 0.22443378781875717 2.7326407922398754
Ar 4.9040734689988605 1.3143326931001031 0.8343866908536252
Ar 3.2976683549009342 4.882076288418542 3.5969053900851375
Ar 3.683209820629112 0.7710313860757434 4.222401919546976
Ar 4.749604061274817 0.3413249244176084 3.710501178519889
Ar 4.119450928865888 1.4012370690890423 3.4477677510337648
Ar 3.3070854267135754 1.8304054671455374 0.2561054895814168
Ar 3.2706697770269084 2.9520784785190606 0.9134017747971018
Ar 4.089131011628918 2.0635393090341134 1.009118817146092
Ar 3.956873208558019 2.808110878429056 4.747997214148876
Ar 3.158377887417768 1.668710588293287 1.7296183270889665
Ar 3.053372236689008 2.6210507274047705 2.212340290235156
Ar 4.3268390220054895 0.9823830772440142 1.9633997891513963
Ar 4.420750560102532 2.7608015638949976 1.8576566890271438
Ar 3.026793356467339 1.8386521068581707 3.675298506817654
Ar 3.082628539599904 2.726918882838695 4.324002531580352
Ar 3.829633908322652 1.8281413032873732 4.447919078876079
Ar 3.8999166362283963 2.3618226741431223 3.4619075171388336
Ar 2.377842264299573 3.3919409551703255 0.17616784312695577
Ar 3.8778836624729625 4.067778821706569 1.1757549434124792
Ar 4.465019618252786 3.1086317976947755 0.6120244906166454
Ar 3.3822487500688765 3.7315647141544135 0.13594846133215976
Ar 3.155402540530002 3.5575253403941813 1.8258730864642108
Ar 3.092875624825338 4.0725593549415064 2.9745802226411455
Ar 3.9619454061830868 3.2311129206117966 2.7628666630078484
Ar 4.056803630515405 4.153953193210291 2.3139001778078447
Ar 2.910933203024463 2.9700247205485173 3.2037164076508056
Ar 3.7204600231234726 3.466310536889015 3.8272098365010825
Ar 4.753451589537325 3.029904081954347 3.437514169076054
Ar 4.26308743582086 4.316391577558428 3.344108083114889
108
step=7000 time=35.0000 Lattice="5.038789 0 0 0 5.038789 0 0 0 5.038789" Properties=species:S:1:pos:R:3 pbc="T T T"
Ar 0.37243761844250195 0.06558463210033484 0.07943251572404876
Ar 0.8490671148831992 1.68140497085967 1.3749716536636014
Ar 0.6866220047054009 0.24682962137640935 1.0606588233092231
Ar 0.6331322911553275 1.3197549771752541 0.47040910029232585
Ar 4.588879470254376 5.031569392031251 2.2036438581150777
Ar 4.875922734971321 1.2456501586061035 2.862658038718857
Ar 1.5986290537452978 4.228492750372759 2.651942891614494
Ar 0.3655291236333467 0.7444228165058839 1.8710796597484143
Ar 0.4174502067354338 0.298207496346828 3.301453360064263
Ar 4.729515450531985 1.3509095183963509 4.0567807947112895
Ar 1.3452904039261933 4.821474856555271 4.924741510100361
Ar 0.8346777190043096 0.5471715860834452 4.210370848249555
Ar 4.9189287983424945 2.04792404895871 4.987751353307693
Ar 0.6708481407822817 2.4151010980287806 0.6285874882014879
Ar 1.6650117176803947 1.8348801999253903 0.7623003704344068
Ar 0.6487840769563609 2.8300744836843315 4.4340586720668815
Ar 5.0215561238788595 1.7920489603861596 2.002082697551033
Ar 5.020172553795335 2.673991577817723 2.650541570426642
Ar 1.0369788227669556 1.2087544132026857 2.5638848800664844
Ar 0.2316469718366668 3.0917322060528196 1.595294338869487
Ar 4.094387497571226 2.1397611837862525 2.50758205444208
Ar 4.890444083116823 2.482316665614237 3.7768426518776357
Ar 0.9109601245471027 1.7208618206896789 4.583755927881513
Ar 0.6430785022003103 1.4507223675173446 3.622099737762807
Ar 4.747672361873407 3.505155850486838 4.438330169208392
Ar 4.714912776352061 4.105254881182098 0.2615868566710201
Ar 0.4651179169141024 3.781386233240451 0.9120228401843554
Ar 0.6499506417874099 3.9550719761329916 4.870480856948623
Ar 4.614476423087818 3.952398029320078 1.5521908736299146
Ar 0.26501237769418506 4.340710142257395 2.858634228367332
Ar 0.6772467766507134 3.4089023904378455 2.5461380857857745
Ar 0.4371756980194422 4.580019304531039 1.7553541836645532
Ar 0.8043845335361302 2.5229139069001554 3.2961592883551205
Ar 0.18851421835885535 4.55275098029777 4.0338087014240465
Ar 1.5171401669906712 3.3390637292474397 3.69917862786416
Ar 1.0770834144852968 4.419232709218394 3.6557435948117396
Ar 1.4659555927483605 0.9099958338068069 0.08396679308870543
Ar 2.1752886971783947 0.10473173503053006 0.5862840088277061
Ar 3.796058764120301 0.11020581966661644 0.4056056777823296
Ar 3.02127072842025 0.8213010016374395 0.044504896557475256
Ar 1.6921546313233213 4.725570415801327 1.618025016294351
Ar 1.049660403719476 0.14464455152851743 2.3638227546078032
Ar 2.8699603646421488 4.589547547601718 2.6499586211497514
Ar 2.494371920713704 0.6403495699691145 1.524387483757703
Ar 1.547451869641559 0.24704947619238835 3.426132083504116
Ar 1.5774503939135895 1.1827547034840342 3.983961082536219
Ar 2.1493148381920943 0.3292032374545644 4.4805660637316915
Ar 2.5737161875920744 0.2531721571844125 3.3431240217887943
Ar 1.5588340230579576 2.51753926058678 4.941854559652404
Ar 1.443217219709651 2.6678218510604443 1.4239209000353745
Ar 2.7402409357655486 1.4955723570567343 0.8696591428967586
Ar 2.442404005734031 2.545103232091017 0.8350823685725333
Ar 1.499900363610219 0.869326879577644 1.4090117650794864
Ar 2.361854018346758 2.7070595993541495 1.9216455418201128
Ar 1.9999722164740315 1.6734385871895803 1.9377909232115198
Ar 2.0351844060748783 3.5184028434970496 1.3985312729753927
Ar 2.021551332509547 0.7177993730135819 2.5824852118086197
Ar 0.9808597216683367 2.313825971215969 2.3088390627804802
Ar 2.2082967828364715 1.5822840253077566 4.874011845432782
Ar 1.8460873757904346 1.8997255513377003 2.9124918117680676
Ar 1.5016034662975208 3.2216549880749676 0.5742939503610024
Ar 1.2746020071280983 4.340026502711178 0.8055749083303734
Ar 2.625298323375462 3.997486883278865 0.47786065276028455
Ar 2.9405556875248413 4.693683145561337 4.690869013518197
Ar 1.0860986874737304 3.788731087761412 1.6729603885683033
Ar 2.341801326532313 4.1835820193268605 3.407449540134428
Ar 2.419632590268384 3.6066908444783343 2.4391555379589978
Ar 2.7346470050145837 4.386002650300225 1.5085113746963295
Ar 1.7060305058909375 2.9575860127069373 2.786777073117478
Ar 1.9267033220663587 4.11176430279606 4.483845018098944
Ar 1.7029885743012132 2.2136827779560524 3.9793666903912563
Ar 2.8915200760386814 3.6837836133075323 4.255490467201263
Ar 4.180075321666022 4.53284769915217 4.489836156991988
Ar 3.9016271918047134 1.2342700046649748 0.6387071806246092
Ar 4.731818054644944 5.036051328677155 1.041674379542151
Ar 4.290493586090524 0.68518105738698 4.74774513736797
Ar 3.6237087274352353 0.012245655702899627 1.7253657589223808
Ar 3.0638424215307336 1.555393284883741 2.4707109327627856
Ar 3.6751156747686187 0.16807652625234137 2.9560117476177172
Ar 4.7796244008088555 1.1119071439037171 1.1297801735189497
Ar 3.355228142045878 4.584203849452676 3.640314310985617
Ar 3.3877510355453295 0.5063808159515398 4.116623865235031
Ar 4.364750638094365 0.24168582837822122 3.7318371782701867
Ar 3.8764683805351536 1.1356780750776136 3.312930308615717
Ar 3.310071529289717 2.259516786531436 0.44290838012065653
Ar 3.694285585939712 3.1531837526710618 0.9034647324437081
Ar 4.355972898360424 2.2004976849281848 0.9107223926327807
Ar 4.086426666706134 2.724759006971649 4.830545137839582
Ar 3.3999667466482273 2.3224160972802683 1.4704650131998438
Ar 3.1870874603611017 2.6825150051299675 2.6168005144622675
Ar 4.100152784002382 0.9710435132572091 2.0857498116861217
Ar 4.251963027613018 2.9151122855786276 1.7441004196782794
Ar 2.7665418624369464 1.3848317192649149 3.786818890313262
Ar 2.9705517181458196 2.2322613415083983 4.505501947107813
Ar 3.7395121387313273 1.5885399026716676 4.518920034968576
Ar 3.662754586467986 2.1295896661621767 3.630379651027593
Ar 2.4371260104738557 3.1052919316587184 4.95496551277056
Ar 3.6395876980572934 4.217053870092922 0.989756411855727
Ar 4.736624065831368 3.0524915662700725 0.7052271127230754
Ar 3.6174058031392646 3.7762678644456167 0.04778043519012393
Ar 3.3671366604315294 3.4144881222772883 1.9458877863850876
Ar 3.31486821676159 3.647865182743967 3.1420664168165713
Ar 4.13139429570559 3.1710671029080006 2.8218251250464093
Ar 3.924853235319222 4.229596114344278 2.4112465635007356
Ar 2.567431639260363 2.6740417536456653 3.5088251105562964
Ar 3.93223684220572 3.216188835704519 3.9058922082293916
Ar 0.4651797890847033 3.5165833464971326 3.675437134703343
Ar 4.332560465261329 4.1830683635587445 3.506177075489726
108
step=7200 time=36.0000 Lattice="5.038789 0 0 0 5.038789 0 0 0 5.038789" Properties=species:S:1:pos:R:3 pbc="T T T"
Ar 0.08160624694250562 4.828355445771246 0.022739067707099776
Ar 0.5596497422533977 1.8163100685617384 0.859000408319763
Ar 0.5540261352045955 0.15712541632745072 1.2234962772426694
Ar 0.3308428798020719 0.750584606273149 0.34168222576311136
Ar 4.824636271173339 4.980145016854288 1.9401950544339321
Ar 0.15902517722131992 1.8930499712020532 2.8156866233801305
Ar 1.6705105943865226 4.543948323639855 2.3848897358884678
Ar 0.3347551385337969 1.2370632874438081 2.0639106581837905
Ar 0.3378226963899566 0.8601943827702119 3.116049470549768
Ar 4.413521980983981 1.2961125347286613 3.564205801196479
Ar 1.0835875290924473 0.3537784391426791 4.79704884858403
Ar 0.10920520201056813 0.7805145222584237 4.196271478312043
Ar 4.884820433087553 1.8345858718844497 4.44716662626981
Ar 0.39617142942863853 3.131475704766447 0.35294353063938533
Ar 1.5929375135500126 1.8047262238691706 0.7397871109422064
Ar 0.5147151673777907 2.69254222982206 4.445506226265062
Ar 4.8563072295651954 2.1691391661030224 1.4958201732698346
Ar 0.16212298360881322 3.022386037921999 2.6151785882403353
Ar 1.2608395787094713 1.363541138933613 2.8192518101111155
Ar 0.14790884782343053 3.203703838019555 1.4015009898221193
Ar 4.24955872067797 1.7764888373388537 2.3388277522784175
Ar 4.843500316266204 2.5225536325177753 3.6253981809437876
Ar 1.038758073701425 1.6387053787315806 4.906341599678419
Ar 0.680082505792165 1.6215346756676012 3.8190482830125783
Ar 4.871082983819162 3.75141301233175 4.421601408282188
Ar 4.627252327802774 3.7195074758525233 0.6543190942183872
Ar 0.3937343063484557 4.247604022562115 0.8962876696816593
Ar 0.7981424104125084 3.8304550059384184 4.640064889211642
Ar 4.635010706612325 4.047725863021116 1.665041536139598
Ar 0.258509850709361 4.792067148149992 2.9216579360675645
Ar 1.1500091818743956 3.4417139376150954 2.7036724207282954
Ar 0.6259944456360845 4.063680333829097 1.9910071840226775
Ar 0.9572706514003232 2.582201789576291 3.3064089198075033
Ar 0.6039951687143167 4.67465574908261 4.058471787232025
Ar 1.5738622608998318 3.2874310843018613 3.86563553683457
Ar 1.6449655243276375 4.2069987006071115 3.507283163803779
Ar 1.8316412779041549 0.603192184727366 0.6155519945931661
Ar 2.5547808084355004 4.664585380090347 0.5384545534551315
Ar 3.5311534951383456 0.2670910238820796 0.3928173750492989
Ar 2.7910414448877185 1.0488703990063193 0.09645564317107008
Ar 1.5705650343443116 4.656673575414935 1.2544295678489346
Ar 0.9295602405963749 0.3215194924575245 2.2556769795667004
Ar 2.7154111832230403 4.5943647644189225 2.649316435060738
Ar 2.3082893426415882 0.3351272913682928 1.4866724238591877
Ar 1.3932212958038483 0.30977643636189806 3.4984820575577227
Ar 1.6317729382488626 1.1172322225458453 4.240007549265287
Ar 2.163286474977657 0.20447899392349156 4.71883579546561
Ar 2.5289153999738607 0.5416850583892578 3.6290324832147336
Ar 1.387261085921802 2.582075878588228 0.08998950994391562
Ar 1.121844702140788 2.765340636152385 1.0946378868618583
Ar 2.5606910987621916 1.4071585099682156 1.1517763012198505
Ar 2.2093791521138395 2.732316706396259 0.8691221795712338
Ar 1.140449010959919 1.1659042305249778 1.4039458430741338
Ar 2.842631259398239 2.2868489040315794 1.6827290128496624
Ar 1.9285701309001753 1.7356555344575195 1.9021578226577052
Ar 2.7075277416059613 3.27422757074119 2.069373415943494
Ar 2.1582815150358594 0.523268903451066 2.5751515969908
Ar 1.0052513285010243 2.126187712900178 1.981726098711474
Ar 2.378079920551882 2.0546875795392125 0.05558781133292172
Ar 2.5283385509753424 1.6376595290543532 2.907367622234433
Ar 1.436371439587775 3.5291125559224756 0.4472632891718057
Ar 1.2060555492696285 4.554083076981143 0.3033065033401594
Ar 2.5429364173578493 3.6323756982076465 0.36189333532452506
Ar 3.144262543523675 4.608055442865372 4.75065370583001
Ar 1.663789061719969 3.527517272741679 1.7515989863762367
Ar 2.561822885204088 4.573343912200849 3.7818019907622324
Ar 2.3100030627990833 3.6477926423594553 2.9352243117437835
Ar 2.4825571434348084 4.242851084805172 1.5354068097528653
Ar 1.9902691903375433 2.61734982514119 2.6299849660224757
Ar 1.9489951980394673 4.141896788043038 4.6506987021531465
Ar 1.530113423128252 2.1594128407834883 4.193598635563124
Ar 2.8414828077602845 3.491717229920845 3.9316488108888406
Ar 4.155409459446321 4.387333287749612 4.9166547073124445
Ar 3.4574646410418164 0.8910048263527225 1.2248800205576598
Ar 4.4172455202337835 4.836429658344772 0.8304880145295465
Ar 4.348701489932301 0.7131080220964211 4.798586036550478
Ar 3.4583802376862938 4.893587494817411 1.3921818149056353
Ar 3.3445543490531984 1.2141441893654306 2.130519225788097
Ar 3.400327295003459 0.05896577010582246 3.3095562593097436
Ar 4.567782819125951 1.0172042667172467 1.466194778365441
Ar 3.69353006378661 4.2929463577010685 3.934571883770645
Ar 3.2701559642729525 0.499974996702133 4.304624579783505
Ar 4.349513208771984 0.16466295302866504 3.749339743611323
Ar 3.325386573281826 1.1643444705637056 3.3257176786821856
Ar 3.4111022071330646 2.1580577477068164 0.3539674300098765
Ar 3.275500241423012 2.981502521835847 1.0973173904842692
Ar 4.4646094581042925 1.6700774212837324 0.5413346942114231
Ar 4.165027273372863 2.7925556064671904 4.802725345089974
Ar 3.843869875187314 1.885735767094693 1.3548675220703685
Ar 3.3285512452145984 2.4994449827558696 2.6330868302183315
Ar 4.183380106246966 0.7902159285630597 2.651848911970985
Ar 4.005490517933209 3.032859627033981 1.798335282479664
Ar 2.6467684054444565 1.472168976170959 4.15429170483064
Ar 3.216869385263331 2.49099684151349 4.30012453002939
Ar 3.762628364958603 1.6079095090424653 4.558638408751154
Ar 3.708967760852404 2.1014639209554016 3.5168432732367116
Ar 2.1605417001730918 3.0548692032801985 4.643538151094884
Ar 3.592113837034971 4.081775959172408 0.7646967948589194
Ar 4.271610981523772 2.6810468055061603 0.7974977208860824
Ar 3.47992191467275 3.590006666565608 4.848697981588019
Ar 3.4598317198514095 3.9312457249290507 1.8511174077009176
Ar 3.4326085025683155 3.8576065417291283 3.0397791380766837
Ar 4.361450904438675 3.619028794793394 2.6329462326400024
Ar 4.111163609590388 4.611429426133854 2.6514861561594323
Ar 2.559817248961642 2.5261091631090102 3.4861390929646596
Ar 3.9208650831017393 3.1385817595816228 3.73882055849977
Ar 0.46730179866699634 3.603690453356687 3.5364589959814254
Ar 4.63400529911944 4.215830174206267 3.5609326334740645
108
step=7400 time=37.0000 Lattice="5.038789 0 0 0 5.038789 0 0 0 5.038789" Properties=species:S:1:pos:R:3 pbc="T T T"
Ar 0.007807128599698715 4.926526479676603 0.07795403097039542
Ar 0.12316327332698146 2.0653325425823854 0.8035959290006152
Ar 0.5889979014250769 0.10359593121442284 1.1506106994276988
Ar 0.6696082228995442 1.0448361857646822 0.30594889346784615
Ar 4.868241242297642 0.2995056402468861 1.9388659095378162
Ar 0.30680149121572 2.149335947555839 2.545516669170259
Ar 1.7755803058894 4.555057796716682 2.37067899887113
Ar 0.5121190771855111 1.40701172545847 1.6813168687113724
Ar 0.32230700239572707 1.1140423544553117 2.6462758707464893
Ar 4.411289297575558 1.3448713661520635 3.873295612954782
Ar 0.8847778216256562 0.3734643990246062 4.625860465745197
Ar 0.4265517057896221 0.7750439789404125 3.751747117325402
Ar 4.790889904597441 1.0854550108371779 4.956416668937965
Ar 0.10652024767607536 3.0669487488612526 0.37886378860911235
Ar 1.2634188234456338 1.8731522656554407 0.7728047281932585
Ar 0.3288074041768903 2.8428877229922374 4.194104280326729
Ar 4.6129132229828445 1.8777546617473124 1.812557674041895
Ar 0.508852646881798 3.2543886460255145 2.2176695222253917
Ar 1.2213770209805415 1.5990152887234592 2.8061622220626874
Ar 4.794440165581002 3.106999423444226 1.4648067535911418
Ar 4.1410985983316495 1.5363511998430532 2.719516249587738
Ar 4.571589252867872 2.4187691257111963 3.3245535223014318
Ar 0.3816283730797821 2.0087493964284486 4.877092536393383
Ar 0.49900430799414086 1.8029741168691558 3.809409288836446
Ar 4.909845032961219 3.7304278600039202 4.703480277791428
Ar 4.46590987209713 3.8891225597829435 0.6999801955862921
Ar 0.48149878903822585 4.000766998092757 0.9479285154405813
Ar 1.0578801183690554 3.6532871501381092 4.922189487380227
Ar 4.71783512246011 4.319367435232777 1.6821052286554419
Ar 0.5269324399715277 4.948504504202893 2.979799504425696
Ar 1.4663765617281737 3.5392720737342795 2.822525746147731
Ar 0.6573399056226744 4.315524251489688 1.9429706514587075
Ar 0.747173580083207 2.786169334965614 3.2060336966747798
Ar 0.7690225360391691 4.495722952490449 4.336705909196037
Ar 1.5700786295964313 3.153392555710812 4.096151355242392
Ar 1.5637591102759558 4.403003738498512 3.440056021801485
Ar 1.9035371119591746 0.3495570947961332 0.07926441031082844
Ar 2.4190098059534804 4.463471226879415 0.6380839164173996
Ar 3.0732663285787534 0.20902131318208433 0.5825397790209776
Ar 2.6705777151662664 0.8981197867028677 4.868886681815891
Ar 1.6211049763447236 4.858318284906488 1.3003300190771987
Ar 1.043196581223121 0.4736305617223953 2.0406347313779367
Ar 3.1318865125588773 4.264155537236819 2.519674758975573
Ar 2.9981675129510896 0.014611297198400312 1.7392183324157835
Ar 1.5439968773291335 0.5011951406244491 3.0933436449073395
Ar 1.2476705426147041 1.2514576297171334 4.196859905216365
Ar 1.8123018340806045 0.2529524804244166 4.104202338489433
Ar 2.4886544679351954 0.3376930033443989 2.929259844071985
Ar 1.3159553589240578 2.55432151813263 4.951864273777204
Ar 0.9033690258828807 2.9719076129118154 1.0531551364567722
Ar 2.669053331288321 1.1193310370882696 0.862208718208843
Ar 1.963935430988228 2.622362762768201 0.8068629730022657
Ar 1.6069115777279914 0.7986113655897854 1.016030491040486
Ar 2.460460315030256 2.4362197037029114 1.7450038380282458
Ar 1.8142543863482508 1.5061329055566077 1.840956053009152
Ar 2.5571011264051613 3.3436968587167906 2.435469538009429
Ar 2.0934313500331294 0.4462151228093229 1.9919746357679806
Ar 1.0973095516293245 2.34431008339918 1.8992287399946644
Ar 1.9532175844723807 1.6794045668046989 0.01027390551600942
Ar 2.3399381671934294 1.6097012682288292 2.9836470687267855
Ar 1.78701433693055 3.648874543971565 0.7093720346497171
Ar 1.1621947279833702 4.66849905219813 0.2854221967361532
Ar 2.8704414527138566 3.5558956423949475 0.23185897772036837
Ar 2.9884167248648157 4.501417624022066 4.74008704379257
Ar 1.4481404304517258 3.5587397044059594 1.7396749317681819
Ar 2.620994158360699 4.71649891972718 3.6879026545108657
Ar 2.3394721983564835 3.7059599602897335 3.4244521804556296
Ar 2.48746361833804 4.055760144242175 1.6414462462223065
Ar 1.681048917794315 2.524848316937608 2.5903838694790537
Ar 2.10128736109728 4.042640247568513 4.552140174066964
Ar 1.5795137632946208 2.183110319740952 3.801021679590576
Ar 3.1690249335243936 3.395478827349532 4.173712732760421
Ar 4.072564075370939 4.5644464913307745 4.8689897512305125
Ar 3.9197479182335515 0.9682539070130455 1.605302053923773
Ar 4.274704211996284 4.990884844154725 0.7899185014897085
Ar 3.722630990771491 0.7055727546045658 5.037096168207906
Ar 3.9258968018943214 4.851872391515085 1.8342509303200365
Ar 2.891780928447288 1.3595104183134838 2.023376053693128
Ar 3.5144424897767275 0.3094298125260194 2.8510813613602055
Ar 4.844091274289861 0.9706831189375981 0.9930000694834351
Ar 3.6790830302843225 4.525515627163168 3.5567112439090742
Ar 3.280307571073139 0.3763344903019943 4.069631431487482
Ar 4.456565743843223 0.2564280763653292 4.034437044303057
Ar 3.3270045793522236 1.4013104983256544 3.407791289876532
Ar 2.945523449541706 2.1582050720117243 0.6972102215547223
Ar 3.0134673585924414 3.1588069018460283 1.1477753310363945
Ar 3.9458644778904666 1.5131765081627497 0.6369705584844114
Ar 4.36516566802033 2.1688665097492916 4.620834573934938
Ar 3.6062548154200624 2.0928595090536217 1.6330365380161824
Ar 3.3894140171293254 2.2559738457939686 2.7267726566073454
Ar 4.534595210650564 0.5621591064289653 3.026712745069887
Ar 4.2568020821143495 2.759664883981091 2.327107498699925
Ar 2.458085129497228 1.6214655057132696 4.096656659912891
Ar 3.4797200875006755 2.5905806745616986 4.9298462302195745
Ar 3.4723707218372564 1.4901032709537096 4.518727405050669
Ar 3.6259228265476997 2.3484075077101094 3.8654397463176355
Ar 2.4529054405297184 2.692186778698833 4.520391120389866
Ar 3.505770985849401 4.280004468911815 0.9667686588857988
Ar 4.173700017624919 2.852460904060572 0.6941863652910756
Ar 3.8688456381946175 3.590936281820229 4.958562290060684
Ar 3.8631647296469747 3.8198367155042523 2.047258935892747
Ar 3.690472668616354 3.2860833495431834 3.1013655102930806
Ar 4.886207214577115 3.5271907480713205 3.008023923144449
Ar 4.506556949736247 4.432937031554266 2.6899899326086314
Ar 2.485807002355725 2.6348390628725156 3.3398248351233484
Ar 4.181815188010274 3.185560803915867 4.058494776922056
Ar 0.7299272699689717 3.760555192451354 3.5990533247482768
Ar 4.732648205387173 4.3007271054819505 3.7375650684881037
108
step=7600 time=38.0000 Lattice="5.038789 0 0 0 5.038789 0 0 0 5.038789" Properties=species:S:1:pos:R:3 pbc="T T T"
Ar 0.21431002789916467 4.698943289420404 0.05958630395628396
Ar 0.41995930747836 1.8023009960465386 0.6437981457948821
Ar 0.48758752759080254 5.037180833264628 1.2257186483078764
Ar 0.18488032647955374 0.6507707661911719 0.5398917902171853
Ar 4.863320056640753 0.32059065728853214 2.033142495475353
Ar 0.01895864063298279 2.302464942908079 2.31835692615334
Ar 2.1621519715186786 4.613821476132084 2.622584990546499
Ar 0.3626625480039323 1.2722000503640214 1.7404061112947928
Ar 0.10097604249183291 1.162164052259616 2.6814752044811394
Ar 4.517015310187926 1.2813703064890345 3.7341147827172887
Ar 0.9612076812591605 0.47653381797129796 4.876493993005097
Ar 0.4449495616675239 0.8116228687492296 3.68748073741314
Ar 4.538078639946354 1.6722063575963526 0.23498842571371995
Ar 0.1547367528605302 2.8447214678301056 0.1432565700277719
Ar 1.5125178311366925 2.0607505618308064 0.8982923468908446
Ar 0.5633793344685841 2.8366353026244213 4.125061049204374
Ar 4.57785047664284 1.96753334349356 1.4304980851550908
Ar 4.907303437149203 3.373971561036052 2.3631799218238627
Ar 1.012968690235231 1.6035257097998281 3.0013085051715627
Ar 0.051017177872816455 2.950068784407743 1.2531361914598114
Ar 4.099300468784678 1.3192399175873848 2.3078977593893524
Ar 4.1998600967123805 2.0777682155486406 3.1720135175185864
Ar 0.46734932373265975 1.5450159264256584 4.4391729197875325
Ar 0.19572587833292912 2.077075900792345 3.4858550765933467
Ar 0.38616357030049553 3.874973085531386 4.356374887930567
Ar 4.742932296121278 3.7062969009083306 0.51775778915773
Ar 0.6955070924560396 3.8591389227910073 0.45219915089292045
Ar 1.572667724428718 3.865893684834504 4.9397116642576
Ar 5.012390005948775 4.283599570361619 1.5720207640206922
Ar 0.41630863072086144 0.11699280224163726 2.8962312919025393
Ar 1.4454477869132565 3.61619110439924 2.6511658878829194
Ar 0.7660739397716746 4.342762862140348 2.289843074381096
Ar 0.803629858511132 2.8639783470427314 2.939881462388453
Ar 0.6148581368069134 4.887650474253788 4.0312998768364725
Ar 1.3347376309020513 3.643123239772567 3.8956766595485592
Ar 1.2563051617708427 4.580189460623304 3.243621427046907
Ar 2.2260735785022634 0.09411537744556067 0.11947136560033905
Ar 2.211484253679482 4.29674303183992 0.7836211844549921
Ar 3.0484075985624823 0.4519196654765875 0.6746240414023708
Ar 2.8903541100177947 0.8604425104555333 4.616118976164543
Ar 1.732906872512238 4.978113834364471 1.502852443927828
Ar 1.0086071034302388 0.6105220511801631 2.135443804255248
Ar 3.2753790774659657 4.139717783576837 2.366161297629221
Ar 2.713093620273678 4.7119145206088495 1.6916452090566643
Ar 1.6957770410297444 0.7385605417493556 3.1916933672297407
Ar 1.4605121729966242 1.3146223480448942 4.013964733754536
Ar 1.851009024669819 0.33552523180577876 4.20922353049626
Ar 2.759042879904716 0.3290485148266778 3.1797699662146712
Ar 0.9810053538680508 2.2841089229644 4.934443734862149
Ar 1.0497880221738982 3.0178889768110286 0.7479469468154143
Ar 2.229726629548407 0.9325673869423226 1.25017854645501
Ar 2.170244735749556 3.2010390251983605 1.0097920295690406
Ar 1.1289701059142894 1.090955780462407 1.0585749553591284
Ar 2.4804883277979184 2.3721073415647407 1.5632043407249638
Ar 1.8274102609430338 1.4846423642479174 2.0951697741764748
Ar 3.102803996593116 3.079709447224372 2.1514853483085536
Ar 2.2497741500600195 0.5586156350447172 2.181427641809378
Ar 0.9796279687292797 2.1536877138991497 1.94859686584894
Ar 1.8431558676815163 1.1689152886136913 0.03441317225007361
Ar 2.4608884244260967 1.5743203389332157 3.3283905284543556
Ar 1.0555617448439572 4.007929773618104 1.3686656725505455
Ar 1.3875631422453147 4.764563200041879 0.5413113301671635
Ar 2.622030023514138 3.6503203720382627 0.025599182772102252
Ar 3.2703783623029765 4.72802144279664 5.006398977715247
Ar 1.3451025525987412 3.1224214054560897 1.7586344305581034
Ar 2.9269607385314034 4.964278271921715 4.059453562040042
Ar 2.5087441407007716 3.514440865976004 3.016214829664352
Ar 2.2370955290121377 3.7169715633263363 1.9422324479368767
Ar 1.9239973951509644 2.4546730274179445 2.5994230040494077
Ar 2.196234270057808 4.248940211998468 4.135845381315781
Ar 1.4964400213125744 2.3986739120982428 3.6095718938908066
Ar 3.2906510819143295 3.8893553903692633 4.207414215017013
Ar 4.228738043643871 4.449232180518457 4.897050274177325
Ar 3.355799056767791 0.625272700954697 1.637211013431322
Ar 4.218097973241996 4.986315725050915 0.7568090360277239
Ar 3.945989833246224 0.6424491659336625 0.025570068831430263
Ar 4.072798099528623 4.707285405650715 1.7346439560787534
Ar 2.93714944088943 1.5211679281930117 2.3445289302327064
Ar 3.6649826402837906 0.25914520414008585 2.552596573609387
Ar 4.4144878697381404 0.972208018948979 1.1834654233609196
Ar 3.7705352077258945 4.349828803743927 3.3103912719868487
Ar 3.899570238179767 0.15568410722928006 4.105508044311456
Ar 4.829522112504413 0.5060522611235793 4.497307684843759
Ar 3.517754668829143 1.2559635461145386 3.343242562446585
Ar 2.49367404335223 1.7645862957998297 0.5779567007800565
Ar 3.1898799898748535 2.9871644898042615 1.0283161458807444
Ar 3.4680579583652915 1.5407167963439679 0.34680826553955807
Ar 4.761340131874576 2.270544013032443 4.393137359086968
Ar 3.4058827351884764 1.8677160332484788 1.3719765471119303
Ar 3.0574472650633755 2.443964021664143 3.192663707149611
Ar 4.4752919113117615 0.35057900791599855 3.1637004445844403
Ar 4.00859909448814 2.68307237660468 2.208695631872955
Ar 2.554917180653456 1.9284220880689036 4.338472962746632
Ar 2.979608841531462 2.730571095571526 0.05752627969899319
Ar 3.83730504180596 1.6148463917537792 4.491772822913723
Ar 3.6872236662235114 2.6796351959754263 4.0891386833725285
Ar 2.0160073363054356 2.726292401734101 4.873249998836822
Ar 3.504345008550794 4.227322221313384 0.9537883881138789
Ar 4.0475844324614805 2.4620783410519755 0.6630267034451821
Ar 3.6883706320594514 3.4798949788774105 0.059249659033705326
Ar 4.237419832590945 3.4219388911438386 1.5327403136280133
Ar 3.695785274321916 3.316168176955144 3.0726803487686105
Ar 4.67661127940251 3.1218876954489194 3.3949210757773893
Ar 4.645060364324911 4.44792606242114 2.688019560203594
Ar 2.5204143644593824 2.9659566386856686 3.959208249136072
Ar 4.4261771545598725 3.513023152359977 4.267905463947158
Ar 0.39564028146467745 3.9375385083805754 3.1677383904975702
Ar 4.7253463019123 4.581261025058069 3.87351414736488
108
step=7800 time=39.0000 Lattice="5.038789 0 0 0 5.038789 0 0 0 5.038789" Properties=species:S:1:pos:R:3 pbc="T T T"
Ar 0.025666655062591654 4.8276250373927 5.011821283483019
Ar 0.21429843826075884 1.9233172129502518 0.4980212965813065
Ar 0.3970999302764323 0.19525717020198133 0.9479223102769909
Ar 0.12567141251228434 0.8607483168418781 0.027025574704133346
Ar 4.497015035818762 0.31161438802709046 1.652233036573692
Ar 0.15665519324810903 2.778036073539631 2.467860917853227
Ar 2.6277962882309183 4.27263933504705 2.8194729948091966
Ar 0.09501355338319782 1.090330706258844 1.2509578778378652
Ar 0.273998659096104 1.1857882574536864 2.7002008038126246
Ar 4.558222579492532 1.2845204764751372 3.7163577022871332
Ar 1.0832755281131003 0.8703288913443834 4.552251707514585
Ar 0.5905089608446445 0.8634453810624985 3.601075427640956
Ar 4.152393282207302 1.4682013644369423 0.1441413472397177
Ar 4.947183032188816 2.875978440399674 0.322078622549815
Ar 1.331788482732066 2.008254791431177 1.1928425134294822
Ar 0.5356836309377795 2.788773420825568 4.457495414449127
Ar 4.719555449811951 2.1350750630517887 1.3501606970313187
Ar 0.29770482601921333 3.8087626974744992 2.5371253652134027
Ar 1.210704561836937 1.7528146753141676 2.910388029301167
Ar 0.43878167600250156 2.875525029265153 1.29581910228987
Ar 4.3247103450105655 1.438975586154162 2.1896482341597867
Ar 4.387612398019511 2.1249631351297062 2.8593163579730665
Ar 0.4417335348783233 1.7488109712406081 4.500267215738031
Ar 0.2049531757641164 2.0225304638473847 3.335436867887299
Ar 0.6246318718515782 3.766540957024798 4.774580825355218
Ar 4.533332708022977 3.9134435594250134 0.28786001181653903
Ar 0.4097000026314596 3.968377769153667 1.0907044462737885
Ar 1.515373722472399 4.24608603515223 4.907929175667268
Ar 0.25514332987835825 4.6936535893450895 1.8508325992875083
Ar 0.38834784518719245 4.9946352223912704 2.9228987344374917
Ar 1.8071723063948106 3.636540826167402 3.1223203737319656
Ar 1.2970547053052688 4.559648872921482 2.406990237212598
Ar 1.039755189425503 2.774562252514158 3.2452260113932785
Ar 0.7197634145167645 4.769924331739313 4.126607524277063
Ar 1.4297983686739992 3.277278746317197 4.316596299833775
Ar 1.5202070954180793 4.652519859407422 3.530355855951814
Ar 2.480310425826085 0.05586214471946958 0.4657911200332259
Ar 2.0778808279426313 4.025281731760348 0.9866102839097367
Ar 3.3212638861752835 0.5555211572215295 0.9042110698970455
Ar 2.752947301309355 0.7937723870539584 4.652446261257938
Ar 1.180508682945842 4.572447221005219 1.3301320195646045
Ar 0.9900111525503704 0.3825594492420843 1.891666823304749
Ar 3.4700439306300974 3.9766350249553177 2.2193513811651564
Ar 2.546340274875687 4.5925004760500325 1.7462123512821643
Ar 1.4189651969885455 0.5186697122272848 2.9492623116919674
Ar 1.6441619160254777 1.4420371038830024 3.8404828718509756
Ar 1.8584653247592458 0.1647202277169598 4.298824993310204
Ar 2.7877975455841524 0.43706604569493224 3.434893136128699
Ar 1.4070388987944087 2.1335734305906757 4.794730283994564
Ar 0.9861900585317837 2.862281793239431 0.452305294129919
Ar 1.912685439946624 0.3447215823994726 1.338244966205273
Ar 1.814948198902545 3.0170105628703676 1.2123534178938462
Ar 1.0699153086385569 1.0471263713766974 0.8928457173200145
Ar 2.3939437356496787 2.089711418333542 1.4910158255755461
Ar 1.6581076413121467 1.2043318870977437 1.9348762055679534
Ar 3.0302432985704786 2.9729495085232016 2.332898271429289
Ar 2.3046352953765403 0.2935056068740064 2.420069036611278
Ar 0.5878337344172452 1.7854423500478827 1.9618193047978314
Ar 1.8416676270125505 1.265654588664802 0.2805888287612962
Ar 2.262554004689282 1.211254744817028 2.9873831795631682
Ar 1.1494841800288127 3.6547977035015156 1.7665159726212014
Ar 1.3345457096483015 0.18875646341040814 0.29812259032246724
Ar 2.663516065893769 4.165697650765857 0.04070366272619052
Ar 3.5863248489219055 4.623071242994163 0.2688398121151851
Ar 1.248323445281835 2.6851560021647374 2.007802098646167
Ar 3.069285589911289 4.90813352844162 4.251846685283962
Ar 2.785673125388401 3.1484668316336335 3.323644075658293
Ar 2.1229762550166136 3.538933754810257 2.0988430760011516
Ar 2.064477265818429 2.533390113915708 2.7511980194622905
Ar 2.333290996154914 4.0971510482305975 4.00880512255874
Ar 1.9565220468375295 2.520359144027049 3.7293721771760766
Ar 3.295120201314359 3.847744536866523 4.099518086483955
Ar 4.139806465498165 4.514637994156868 4.374914061800402
Ar 3.0171591422023494 0.8868831438895028 1.905312994173588
Ar 4.340151739851428 0.2357503085921053 0.6513630976896971
Ar 3.6983595467852064 0.5665837749401851 4.821330879802501
Ar 3.676948851159214 4.75216461387333 1.5203661531419614
Ar 3.0202999746256136 1.8302032178223273 2.312682451781772
Ar 3.3363542899676286 0.09407382792594672 2.4902643517405845
Ar 4.077056670557438 1.1851902432978596 1.1848399557964695
Ar 3.6450822312634172 4.494626191688457 3.2215122099142586
Ar 3.828386997941914 0.40292257550002575 3.722560408304078
Ar 4.9043341417752755 0.2884748662447486 4.162817790117603
Ar 3.5691093518013326 1.1935644513005719 3.0563929935056
Ar 2.5112176356634484 2.39364496818364 0.46454943188739467
Ar 2.8588139483361212 3.0032825845801403 1.2071247237725347
Ar 3.0210902938116218 1.3949049354924175 0.360241704200574
Ar 4.5376969455310565 2.3907721389 4.164557532156898
Ar 3.356380421189281 2.013353803146404 1.2406882845254952
Ar 2.965079165634106 1.9489975885616417 3.480443885690176
Ar 4.541865567086473 0.5613718717984814 2.8899565528772073
Ar 4.103890548673085 2.678872016741449 2.0675372147652826
Ar 2.619856439131026 1.8664695008643883 4.49745161482896
Ar 3.46858878486045 2.307681017174738 0.008705845559556275
Ar 3.6166033469644554 1.5110633400796856 4.193815169867603
Ar 3.6469775870671413 2.900490053484088 3.8343396062489026
Ar 1.8544496323026094 3.3352204508155086 0.1670300236494814
Ar 3.1417117027491863 3.934718772652655 0.9679528865523445
Ar 3.897595695277321 2.7795533696674433 0.8690530457173334
Ar 3.555615396898914 3.476849891400788 0.0912028424697038
Ar 4.180545039752423 3.663917733904054 1.5176910902272591
Ar 4.264472265648043 3.5753214387419328 2.5668509841015417
Ar 4.962857021486989 3.084655152525946 3.4539353082820528
Ar 4.463249187541123 4.627830770749918 2.47218917851758
Ar 2.7227324441580123 2.9715510986594365 4.409328990865931
Ar 4.450738417582594 3.4756095711878854 4.351656903343136
Ar 0.7682738273443586 3.8621157583482004 3.4442377502124892
Ar 4.667348510354792 4.430647939073529 3.4850588074065247
108
step=8000 time=40.0000 Lattice="5.038789 0 0 0 5.038789 0 0 0 5.038789" Properties=species:S:1:pos:R:3 pbc="T T T"
Ar 0.21374302533843298 4.739990414703138 4.994366723013151
Ar 0.4365476559339846 1.873089400828799 0.07295079958231569
Ar 0.05315075778397441 4.996109912160843 1.2393240853513372
Ar 0.2580564360288337 0.7844859927445791 0.02731351298952547
Ar 4.610049848505733 0.3339912772769293 2.2349047129157547
Ar 4.966178143461364 2.685716810657743 2.2905108701804244
Ar 2.6322879048908234 4.146888852331181 2.5870073095584787
Ar 0.15374704858543028 1.167828733096432 0.924115720008741
Ar 0.18953646256278178 1.145634753896468 2.262162491669527
Ar 4.71435100401549 0.9375788720388973 3.167096330248147
Ar 1.4611896889379925 1.0617160338883398 4.538465232155811
Ar 0.6998290498471309 1.1806652069734613 3.6494828766026535
Ar 4.423878350946366 1.3616207630669552 0.20261817235618113
Ar 5.026731167001018 2.8027997410875605 0.18950911281117375
Ar 1.2890745688439755 2.0849359951905697 1.0939096417173502
Ar 0.8625309298660975 2.462538660711644 4.2881054939910435
Ar 4.681616723409898 2.102761179684089 0.9881706658817399
Ar 0.45146871101455555 3.665871710216935 2.6909740988005364
Ar 1.140987563415095 1.843142981120601 2.767951135580513
Ar 0.37300724415073017 2.9191733068964387 1.2800217051148401
Ar 4.3339923053157445 1.7992201797245442 1.992827318392664
Ar 4.163659539077636 2.542840076989442 3.087181962841557
Ar 4.896595722923172 1.2538634985882926 4.220671784808474
Ar 0.10589068423129097 1.982676918285943 3.140007620200823
Ar 0.47923017797626577 3.3482622945173577 4.560522334801114
Ar 4.3484478766292645 4.200454701978087 0.49232767872663263
Ar 0.4883629223133902 3.74612962072214 0.6084153098039717
Ar 1.2105591719412088 4.061455480956175 4.850639043179252
Ar 0.6527561956831036 4.8888044774809885 2.28457601762394
Ar 0.2935494348899008 0.05164257332756306 3.29111271935852
Ar 1.6014083281353093 3.835286050378846 2.885993448998297
Ar 1.7525219881168648 4.582842405960245 2.1371608135206297
Ar 0.9170407650393807 2.935077624607421 3.2824277464626754
Ar 0.8497561896998119 0.298588581580362 4.147647307517271
Ar 1.7655140380240202 2.9925783843943856 4.455602086374097
Ar 1.3095680740909479 4.823263740883679 3.1750545511194312
Ar 2.25923781478004 4.803757260390447 0.6517719333609703
Ar 2.3872683381601436 3.8817391587487102 1.1925298277692842
Ar 3.148940655476272 0.677372440293612 0.7287859280589067
Ar 2.8546441425636973 0.9368694916613475 3.7588383197378206
Ar 1.466385292884638 4.148293325012057 0.8850021555656414
Ar 0.8307188459439798 0.6432896258330898 1.5564639112935141
Ar 3.6896162461827835 4.273261636182462 2.2675327783037744
Ar 2.8118796375767547 4.796324616543525 1.8349121082714523
Ar 1.0911007032311675 0.7762986745438241 2.6769048390166095
Ar 1.9060021174400887 1.1856931994722415 3.388496397170057
Ar 1.957202285775603 0.20163797346023798 4.324569436061325
Ar 2.6206316534688767 4.9562743732405705 3.429299915175497
Ar 1.6102894344630194 2.014343513048468 0.031513860389563636
Ar 1.1165912225709387 2.9014808235819665 0.2239357724715223
Ar 1.9138762055303997 0.3829660506210868 1.4476818279435495
Ar 1.4460449462443257 3.2378301980603976 1.210256224998362
Ar 1.1883511098012502 1.1428763057294573 0.5275968998152946
Ar 2.310429823550542 2.3570603164161232 1.8061567290696308
Ar 1.5813922466646644 1.3507291858561876 1.791760414255656
Ar 2.953531987306944 3.0057108478905055 2.7746040178228912
Ar 2.139116497367845 0.4417119444642504 2.461731472753672
Ar 0.4581869617108171 1.935606164262479 1.7964348625055275
Ar 2.2378812031819173 0.8456133829094566 0.3081787528435332
Ar 2.348189938053456 1.841425879086336 2.6737169852053744
Ar 0.6001696562366277 3.8926452507187395 1.6569145143092583
Ar 1.2459497661915229 0.08084891221441196 0.21114884814006035
Ar 2.3223893985689568 3.850996782857362 4.798895120281149
Ar 3.3054036052162017 4.652067414769916 0.5107417383855261
Ar 1.137391686644563 2.6547861128936194 2.0373245876873796
Ar 2.9082334010960498 4.734080086370825 4.438353530349243
Ar 2.6559226210774085 3.5037104373020416 3.800337081093092
Ar 2.0225245901825004 3.353244326333802 2.073314675881785
Ar 1.8496674280791687 2.6950154548086505 2.927289869890201
Ar 1.988703849432021 4.20475737681178 3.9266688170082333
Ar 1.721628227488348 1.9781878282101242 3.881610053013737
Ar 3.3553980189762007 3.5725553607853278 4.6858128827359
Ar 4.007401041214727 4.625663182342414 4.4147909919119686
Ar 3.0553783217650374 1.2734601419151685 1.771759308447172
Ar 4.28962576516348 0.28434480467377765 0.5516228735105938
Ar 3.6669809760244063 0.583937306554101 4.706604713406506
Ar 3.846438556840881 4.984501277531044 1.3528618803312835
Ar 3.3768877872627803 2.223194427962772 2.2909924016854437
Ar 3.2143200720188934 0.3620861410223448 2.5810037924613867
Ar 4.0387157645575815 1.1472134421481885 1.2258535093976077
Ar 3.392734719338758 4.298499803123189 3.5402392412114385
Ar 3.6830795845024413 0.46434578477635224 3.6403325029411455
Ar 4.691842553473639 0.2827384847610432 4.233410645190182
Ar 3.655260315046743 1.4269617025336976 2.9363590667315624
Ar 2.4206405521849215 1.8635788483383748 0.769475131606697
Ar 2.9338771973172704 3.0490678127976056 1.5849213154350457
Ar 3.34093314775809 1.5920324361035203 0.1363961041156741
Ar 4.546200674946738 2.258686574009541 4.188584309240919
Ar 3.5358488763136924 2.1168807814875703 1.1244205417896391
Ar 2.6985092923795424 2.1228739348150194 3.5621091231859783
Ar 4.317789866983877 4.9114112151790374 3.2177773303701995
Ar 3.905576090170695 3.1440410386064435 2.1291468331785404
Ar 2.4694174635531896 1.5267212416047715 4.6061792608420165
Ar 3.8461491757416595 2.503698221884396 4.867996841541633
Ar 3.5388648928822874 1.6804852681506726 4.132289141167928
Ar 3.5394134197168405 2.9164791825306957 3.776087095248094
Ar 2.1453173392384683 2.876357049282639 0.49603836817663116
Ar 3.523251640888492 3.85974199556168 1.1255490616398787
Ar 4.252118649548577 3.126879957138394 0.849317743161701
Ar 3.2342748977592626 3.1108341214179123 0.5463133904718568
Ar 4.611772991754807 3.728790193960829 1.573216221828073
Ar 4.1943282362121 3.661307889116411 3.122195307932504
Ar 5.0134927636588085 3.0554102736484996 3.6583365654176423
Ar 4.725558866631637 4.333441333140632 2.465176655674074
Ar 2.7841407860844365 2.618944503277798 4.767192216586577
Ar 4.411055346982916 3.372182383182679 4.508793979503857
Ar 0.9252311451536948 3.924887354059451 3.7940118071372906
Ar 5.014446975148177 4.271102529142255 4.0102236344468745
108
step=8200 time=41.0000 Lattice="5.038789 0 0 0 5.038789 0 0 0 5.038789" Properties=species:S:1:pos:R:3 pbc="T T T"
Ar 5.015681792351077 4.390243331472207 4.967375150907473
Ar 0.43633830592502865 1.784408237448184 0.6698601062518513
Ar 4.837729199214854 0.06627927874908283 1.3432716945485963
Ar 0.40170668413410876 0.9917376117997269 4.7342365298005396
Ar 4.2370000442970674 0.22193858988522192 2.3211118059202924
Ar 0.2972671506216178 2.5732844444932232 2.3469466507063492
Ar 2.8735741503951027 3.840927000938868 2.852464295141596
Ar 5.03110065091307 0.7317872456149365 0.5837912447309984
Ar 4.733220311357856 1.0428369731427791 1.711361856749392
Ar 5.006977357425463 0.8524636342309916 2.7492441606533777
Ar 1.5760255315680487 1.1886604143953814 4.495406922721959
Ar 0.8304914330467943 1.0080772229343398 3.6117473835228675
Ar 4.493488345514428 1.5491330167741342 0.13572184923814978
Ar 4.926769991889325 2.694431369164679 0.4341550767824871
Ar 1.4473971682196782 2.2933652458448126 1.0551422670201287
Ar 0.804857122789198 2.240557874382957 4.201450734458647
Ar 4.546342874762878 2.0830600867283526 1.2834544223522775
Ar 0.5287633285541375 3.806679834122555 2.7022440625096174
Ar 1.4917380958989845 2.1970704118548654 2.538090950109208
Ar 0.5244935343466128 2.830667763450691 1.3386173262265952
Ar 4.681573848466785 1.793871293132324 2.678283455249
Ar 4.240718642791734 2.3783289478691008 3.515887773677968
Ar 4.742585697202726 1.2912529691869046 3.761040480844862
Ar 0.43951245233719793 1.9258055793431583 3.258408172777301
Ar 0.38378209055556967 3.265107762710738 4.520138689905836
Ar 4.235384457026607 4.092874662670797 0.727835637634657
Ar 0.2402500252294991 3.758673201335212 0.6740043699896566
Ar 1.199529554579812 4.213328869777048 4.840395503510093
Ar 0.6383839507245513 0.16280650572777983 2.338731936646423
Ar 0.10973039445226251 4.693448351018785 3.1243589426767473
Ar 1.6396369638795836 3.7222719350819604 3.0833142621244916
Ar 1.6090607874385146 4.345312240803447 2.2562692592871936
Ar 0.9431433667426765 2.900693277906264 3.1494682669663456
Ar 0.9955013013042784 0.10422291127228574 4.234877087065744
Ar 1.4215997564490248 3.210460950264558 4.138815501662496
Ar 1.485296330067153 0.014062523545716125 3.104510739504281
Ar 2.2129512773758164 4.698163765379796 0.24116634099846124
Ar 2.5361722244820206 3.8585089482586756 0.9151102321705803
Ar 2.95497701487291 0.6820696827095825 0.8701737111343817
Ar 2.8852419110932854 0.6752690830290603 3.2332333889524905
Ar 1.5055938692470627 4.601861958226185 1.117499760841031
Ar 0.8035574730376642 0.3393052114406859 1.282986466054752
Ar 3.4686294882119695 4.577904014661339 2.5139196913391437
Ar 2.6610414806997875 4.667820218555475 1.6487259136113879
Ar 0.933565454392765 1.2656917645028951 2.535422991379363
Ar 1.8421838256996346 0.9863288463960187 3.330713898970774
Ar 2.0758409669686464 0.12984990201851881 4.161304055519091
Ar 2.435380056563968 4.875112051347884 2.679649377291744
Ar 1.8246941869671092 2.103984069663616 0.00791915925028521
Ar 0.9828553765701895 2.6928083679457 0.1317757612296941
Ar 1.903339491647841 0.6189467149448297 1.3056741016159177
Ar 1.3542037242355223 3.443311123745244 1.0087662192954494
Ar 1.4120210927459973 1.3434273245176458 0.5406155574103378
Ar 2.411395571341768 2.3258413096069015 1.8852476150086848
Ar 1.471871891564972 1.5132964123268056 1.6678271636095818
Ar 3.351361021086234 2.905052711392239 3.079476248531741
Ar 1.900761112528289 0.6278292975129172 2.3238949536985842
Ar 0.4951200828317201 1.6689232500682176 1.7642356137417856
Ar 2.2134132253931083 0.7395516235247821 0.053504049296052576
Ar 2.434054101385733 1.5261995241666881 2.505100638973659
Ar 0.7484592674197554 4.100655957865937 1.7857096683791582
Ar 1.1943294584620694 0.3073029866012664 0.32916367086546994
Ar 2.0686449043025843 3.634818527575425 4.9746051767406545
Ar 3.2678272134690296 4.5654583708769945 0.6233380661787097
Ar 1.2366272245958616 3.202189975162705 2.0892664544008004
Ar 3.097404192769087 0.058514749992705506 4.626122445466466
Ar 2.663710434678983 3.4191389023858094 3.9119480726405524
Ar 2.281645855305432 3.5383019471214907 1.9582575874640942
Ar 2.318301734413548 2.7630329766472914 3.033965897484609
Ar 1.9218983722684124 4.159123691842638 3.9537261075573364
Ar 1.6123348571287657 1.969593067524935 3.6429683555850607
Ar 3.2204542509781033 4.052529444480206 4.567412453775365
Ar 4.077878148198467 4.674999974035353 4.351292589846071
Ar 3.240078591168322 1.6163872117611584 1.622505170025423
Ar 4.1594277639864545 0.06059485976394635 0.36029881407310743
Ar 3.6099299815143113 0.8753977541305415 0.020063957082644565
Ar 3.8101643609960227 0.05317433658818306 1.4195646822319297
Ar 3.587034960786768 1.9353149061481423 2.5019372418528816
Ar 2.969027287296671 0.649267018704328 2.162393853029101
Ar 3.9186466994096354 1.291807232566104 0.946728562091126
Ar 2.8782755914748877 4.741875965648746 3.574854048049494
Ar 3.715688616246862 0.7202269953601241 3.967264058764637
Ar 4.892779665616298 0.3115077223646318 3.9938629690999248
Ar 3.921082499524441 0.9974924629730159 2.929219885656262
Ar 2.3730038948406333 1.536789422348226 0.9984808991385824
Ar 3.2607001304172907 2.8184007762385557 2.0500632887532415
Ar 2.920242519420885 1.7378309310407127 0.05064268924335315
Ar 4.7721854332873725 2.329257689452073 4.5111586270902055
Ar 3.168210182539602 2.354130657078069 0.9103097677412979
Ar 2.845399030130984 1.879926217466535 3.3591275864521264
Ar 4.0712546504649545 4.941653074757254 3.367635022943519
Ar 4.204149752278656 2.963807686725477 2.3642925420051357
Ar 2.7755244283376386 1.053031327062052 4.142844494940372
Ar 3.801746467225475 2.3828244264401963 0.16743550872495108
Ar 3.7181685094325982 1.7821547403905473 4.207280210590317
Ar 3.6594375072432936 2.8521240757397983 4.279784501320006
Ar 2.3872119323579972 2.8352990733185197 0.554300227892244
Ar 3.472125156498271 3.8628139424547787 1.6106068035774275
Ar 4.027034241665026 2.979577045464962 1.3279920972143167
Ar 3.420399976186312 3.333280996187595 0.45841974790851
Ar 4.936760980310407 3.4843149694345943 1.7458078164202608
Ar 3.747757815972131 3.9323660501066726 3.6433597622073988
Ar 4.964769216175982 3.1401001887426063 3.2642203472059914
Ar 4.565933013904753 4.010641583042106 2.6112305342375914
Ar 2.4976051652558042 2.436283779604992 4.248225551214663
Ar 4.3754370600575765 3.421499077063452 4.906686274165172
Ar 0.9297331597592942 4.127062502001666 3.761076628858928
Ar 4.78762795721787 3.9571512662244523 3.843577657684747
108
step=8400 time=42.0000 Lattice="5.038789 0 0 0 5.038789 0 0 0 5.038789" Properties=species:S:1:pos:R:3 pbc="T T T"
Ar 0.26645356257620834 4.778223661036389 4.84390638586199
Ar 0.2989190886897718 2.000180594977955 0.5479688987288545
Ar 5.012935656734256 5.010931724891615 1.3866036109443438
Ar 0.5921210043639521 1.2912582696828012 4.679876227054405
Ar 4.571039472255716 0.031883293002312324 2.468070041511209
Ar 0.3855286750675061 2.5715500269528486 2.2590811996017135
Ar 2.8883065898988614 3.9218840457142212 2.7624265868039046
Ar 0.15272079522728288 0.8320150694365699 0.5621853317683859
Ar 4.641807431858593 0.902469475034116 1.9636823185126537
Ar 0.2291946469141713 0.7019577093640742 2.873528107381103
Ar 1.6626803709372922 1.201467579789294 4.369302798427928
Ar 0.8892767831824411 1.0803460722210623 3.632033837419652
Ar 4.46116627887402 1.1624325685419972 4.850272808813669
Ar 4.669743760654493 2.8120925329830433 0.5541528601620213
Ar 1.214121625303027 2.3373956389611257 1.0708544031108094
Ar 0.8802155480690833 2.395983714001275 4.441465237541355
Ar 4.620171219141534 2.319588167737884 1.5591642938447636
Ar 0.029451030291372565 3.4796412363033764 2.911281101501049
Ar 1.6098973618707786 2.8023231600090965 1.9919588813891933
Ar 0.4639070160405496 3.202966008807857 1.2228193426486087
Ar 4.867579186680184 1.7000368922688163 2.6619258979530236
Ar 4.23354627971386 2.016460874784884 3.4053761733876273
Ar 4.9143590849385985 1.265191422292156 3.711242681795863
Ar 0.25901812591431944 2.310900590227888 3.462477120242725
Ar 0.28652212442692715 3.3244304348360663 4.444209267577294
Ar 4.21957705228699 4.023915249537891 0.8491010447669749
Ar 0.08628386074040466 3.8227091931103874 0.3234076053513736
Ar 1.2261464869526681 3.9764426677611797 4.6609492910193095
Ar 0.5173123055554597 4.750524274579656 2.240843354398711
Ar 0.1959144463253492 4.621905631965203 3.2211672083266496
Ar 1.848347314475803 3.7176303115439957 2.793697329981764
Ar 1.5932323823344965 4.409881383883644 2.0607300119214447
Ar 1.2169830975882439 2.720067631010891 3.0358032196652966
Ar 0.83199686282232 4.822862481241458 4.003161925549911
Ar 1.5668777073841702 3.0986523871237037 4.020170250579174
Ar 1.2511826576145078 4.987540687212689 3.0220447051296238
Ar 2.3015400087065756 4.668873962481874 0.031220193018086942
Ar 2.509598544400185 3.900141481311988 0.9082743801498739
Ar 3.023283742123835 0.35461695273017263 0.9549305548002179
Ar 3.0088659909999373 0.4385555595146865 3.450191123062238
Ar 1.6782870513429653 4.6519980079455125 0.9290011249188043
Ar 0.9799738409109824 0.39520375564117993 1.1483876535252415
Ar 3.4801063715488203 4.933161476747014 2.5435803953271727
Ar 2.6203583696146264 4.784583524550795 1.84194675021064
Ar 0.8677005311174715 1.451959309890528 2.561306445627292
Ar 2.0616603051208906 0.9803484026828275 3.3708822747197185
Ar 2.0436144954787174 0.150274102185784 4.078713334151362
Ar 2.2863844316510122 4.767606643132326 2.89712208810794
Ar 1.7374342983131332 2.2146549025885096 0.11929145776386774
Ar 1.0512722173667135 3.201863904772238 0.24375582738329607
Ar 2.059817142654725 0.589126001664222 1.080062374011122
Ar 1.6135502986961237 3.2722097452232752 1.109757348711556
Ar 1.2885013518182582 1.2919590107928796 0.4400960114480645
Ar 2.7984243613903828 2.205373642994412 1.9353208787521519
Ar 1.3900453406872786 1.3561642090731547 1.5496534922424228
Ar 3.5089675855712903 2.7183879198817333 3.441423542592828
Ar 1.6975307626807952 0.4306822004052819 2.195262486641751
Ar 0.4312372110534411 1.6447505197543804 1.5179207807652437
Ar 2.5115782063689203 0.691680233760768 4.956086940001169
Ar 1.9779164330006525 1.5985959453365033 2.3992983244450015
Ar 0.6928114256062635 4.265852233712256 1.0856703371118317
Ar 1.1979840393263883 0.29731183152858665 5.009503020284244
Ar 2.1947689651173863 3.165876188988502 0.04514752096056209
Ar 3.3976513341126617 4.427113362184501 0.41377371126081114
Ar 0.831920235464203 3.529568914314798 2.2221491044260833
Ar 3.1595695539574202 5.034620296510548 4.596013531915995
Ar 2.5956094813926507 3.2715025058434923 3.763129812045045
Ar 2.4306749094722395 3.3926344330483347 1.896664690479298
Ar 2.3525140729267773 2.735531014285506 2.904232675244416
Ar 1.8044856198510186 4.281237996867308 3.76103003970908
Ar 1.4112112600839704 1.9303661097425966 3.687676595871287
Ar 2.809240018557892 3.8990876151326317 4.645483451912052
Ar 4.12684664519106 4.713443099637823 4.645481018493462
Ar 3.5586181306684663 0.9912164662884262 1.5550240027568474
Ar 3.981313986784545 0.3852767821694204 0.44071616505287264
Ar 3.356489121640927 1.326325404151495 0.1929654246068295
Ar 3.7873714838108294 4.943494293873847 1.4943010230268015
Ar 3.755475196473754 2.0241528566720204 2.2292227367243287
Ar 2.807177873960543 0.8218836840991532 2.4389383119970462
Ar 4.389618555371919 1.496600521700959 1.0120610999666984
Ar 2.9407561570352487 4.4918411240209135 3.5796797731191026
Ar 3.73369992098999 0.7004667594725579 4.042755762210974
Ar 4.751256943371032 0.2788672985437767 4.035080568504505
Ar 4.008462072951482 0.8456134038395937 3.039951130572028
Ar 2.2749186521253857 1.6797504323884263 0.991343366966082
Ar 3.3907503540412596 3.038481897659504 2.4070206420624194
Ar 2.7467624867881733 2.245012487231207 0.019181506321261366
Ar 4.766642170355383 2.1534172635546045 4.3284216545003025
Ar 3.351482586664433 2.2296139666883183 1.0456556219713078
Ar 2.950438334625518 1.8969034382021803 3.1372294000298298
Ar 4.1149944823269395 4.78043398943415 3.356018699050034
Ar 4.445003050411399 2.6930226061101568 2.6551056322850455
Ar 2.8038228955961597 1.3416346980418548 4.226034288504503
Ar 3.949163890714674 2.208630180082241 0.14204213340928976
Ar 3.6811833021977662 1.8799192078929807 4.259092927715151
Ar 3.3687683841863385 2.951336354057984 4.584898611217318
Ar 2.378771855231215 2.7485550517468584 0.9724547399807193
Ar 3.3890333612040253 4.058356962172484 1.7332222796179213
Ar 4.118803584474409 3.239202632216189 1.6251356606721108
Ar 3.3952080792619492 3.1647391829497606 0.6204293105801431
Ar 4.905342871415972 4.017279145764606 1.789297486570928
Ar 3.678779154132192 3.765895225300324 3.72936244219942
Ar 4.459256059840715 3.135715574108919 3.832232048862174
Ar 4.081232419221614 3.9168389770587013 2.597923881582516
Ar 2.3076393805463824 2.273912696604266 4.132525305413465
Ar 4.152196693807497 3.542353677857108 4.798209762407407
Ar 0.8985923630915165 3.777841853091998 3.6459665348279033
Ar 4.828083801263823 4.12370295167317 4.158700415915856
108
step=8600 time=43.0000 Lattice="5.038789 0 0 0 5.038789 0 0 0 5.038789" Properties=species:S:1:pos:R:3 pbc="T T T"
Ar 4.875562157076288 4.906356604670412 0.06854730425976603
Ar 0.0368071688341306 2.0267903223584454 0.4089653410799077
Ar 4.59771085169395 0.012738813165797398 1.1925961349726752
Ar 0.6318021473093213 0.7047099490578107 4.795561171694043
Ar 4.38966191835213 4.9743432810208805 2.344914873271343
Ar 0.5061446642766966 2.3713257453951555 2.033030420315568
Ar 2.9134355006566577 3.7335361224423464 2.852285178952597
Ar 5.027904979767243 0.6974849328724123 0.5837533014391485
Ar 4.572004130946426 0.8807105184478218 1.7976990813699039
Ar 0.30047030191193796 0.33057800024010453 2.706401272683686
Ar 1.619494525059862 1.2321145465778547 4.545358297132002
Ar 1.143369403753638 0.6999533143387492 3.6433429747799586
Ar 4.590029563606227 1.2267836385237476 4.7379902934489575
Ar 4.599373274545033 3.021659736838818 0.5200055646064424
Ar 1.0684228935911115 2.514772340818772 1.1659877718065101
Ar 0.9394241572465286 2.0797969408995645 4.347114200268856
Ar 4.591664036831587 2.3528467001400286 1.3423765494839692
Ar 0.16140511145922054 3.323526652093209 2.757644772715879
Ar 1.5322370242478742 2.619203315080242 2.118110844448388
Ar 0.2550307009497493 3.2212311601867096 1.3404034901451802
Ar 0.15640357555212842 1.495139856155758 2.573595362014311
Ar 4.348092214559284 1.8673992189114206 3.4998088587320306
Ar 0.15960210265822966 1.2079434589661595 3.7203132772697343
Ar 0.26656642444529294 2.429607996790944 3.2854901386136444
Ar 0.49739683884076175 3.0406876037701633 4.306415670194987
Ar 4.302293978934504 4.085780240155468 0.702227352921758
Ar 0.33775112224704873 3.7171243756572596 0.06738892398361195
Ar 1.4496196663099405 3.5897881810254533 0.020253069895699513
Ar 0.7730219583537945 0.050090520647567936 1.7597038250308414
Ar 0.20479028867315693 4.378414512617333 2.779928629471688
Ar 1.8314751750224763 3.852290437885944 3.0783328833888666
Ar 1.6209210181465061 4.5378498992567335 2.0511558161101844
Ar 1.305705130219374 2.7228966542921205 3.161499401526156
Ar 1.0390477065610049 4.583503586220849 4.873272538996694
Ar 1.5451153198493608 2.975408000542032 4.301938337402632
Ar 1.2171922283659478 4.661290783369644 3.1900300266644877
Ar 2.2285556682774397 4.463773755972683 4.887786296542912
Ar 2.510452287516781 4.074996221039116 1.0791388639162063
Ar 2.7471259741070484 0.3098483535566818 0.5992011335430959
Ar 3.3479197118914206 0.5105169174831957 3.165065491548393
Ar 1.5915749288722496 4.510708434750925 0.7826185534020033
Ar 0.9361669988159985 0.36548859133600337 0.8513029126836541
Ar 3.4811763930697954 4.6445522229989775 2.736472082808355
Ar 2.594581093917904 4.851658683903453 1.7888455319546233
Ar 1.1466559943672916 1.7014934997466717 3.008777782761348
Ar 2.4008442082871646 0.9896966234091165 3.3171035151764845
Ar 1.962293634796819 5.0315757329121915 3.7703378628661675
Ar 2.442525696586932 4.944380228355315 2.8228786914318515
Ar 1.8161170213011506 2.1783674462426443 4.978965875961804
Ar 0.9561239799174932 2.5933676802126158 0.1747211948726612
Ar 1.8693441856518749 0.47541590779318665 1.3831191843770143
Ar 1.1309008173514767 3.683657912132344 1.2071940634137002
Ar 1.1140677281207787 1.4186763890822383 0.4906758604059389
Ar 2.495295613389017 2.269081546542698 1.8267213758508438
Ar 1.4106837449050438 1.6006149693114138 1.8645040078240211
Ar 3.5969969076968713 2.6617236616355804 3.1465531610836655
Ar 1.6076572522222727 0.5701391617887144 2.5965965421964943
Ar 0.3328026226194959 1.522750901576438 1.3301943058129924
Ar 2.415901747627604 1.3072205529345688 0.3049976448245355
Ar 2.158419433518126 1.766338318190294 2.677742100960785
Ar 0.44401246955171514 4.426640755755491 0.902298458890312
Ar 1.6764350758733 0.3848706401388967 0.18576702769403625
Ar 2.4058720425658278 3.0495945007517222 5.032169749583381
Ar 3.379996438245559 4.577934796042962 0.4449886590357509
Ar 1.1181881278551273 3.64114604367314 2.4124330396915656
Ar 2.7187023784759137 0.5170035292266053 4.355841767544574
Ar 2.480672725074564 3.3629177279689757 3.833923949610835
Ar 2.1715317132261243 3.4994955839440585 2.1793387400324247
Ar 2.311829610474099 2.7568380883718286 2.9085263224758813
Ar 1.5581538111672024 4.006559706181919 4.086986897930384
Ar 1.923029851020457 2.186557168700754 3.7611796173695855
Ar 3.016606452653108 3.847175260596403 4.849914619852161
Ar 3.4593271006293023 4.818929053299277 4.417108010452452
Ar 2.9349519846627548 1.4597347884494087 1.3812095081668958
Ar 3.9289309195321294 0.4351323396713323 0.5361572982998339
Ar 3.4207748333450003 1.3144701050410756 4.873325757504115
Ar 3.5720648306985625 0.42418485540069384 1.8186793570180295
Ar 3.7726747084250194 1.4262204510319576 2.2627283772275346
Ar 2.7411314545996945 0.9146363429977309 2.2680608150619452
Ar 4.043116225055525 1.396593706179995 1.0251851142864254
Ar 2.7755649797707584 4.411132188358966 3.7811843010537713
Ar 3.7667554749580314 0.9303886431991426 3.9532040503735635
Ar 0.15390481460324235 0.04436397038595562 3.790132888411237
Ar 4.44765650776473 0.832131532413447 2.942680014305487
Ar 1.8858866830718826 1.928156993986479 1.0186315042358753
Ar 3.279539955790909 2.9443947623748845 2.1625083071718043
Ar 2.966589134999009 2.15356092499414 0.2529174926097251
Ar 4.740282290002789 2.2914563074630445 4.478713044397112
Ar 3.507224570005441 2.410424089499899 1.289296145103195
Ar 3.3020815563195463 1.5797477048078299 3.1288381889794556
Ar 4.162485651601918 4.9777533446183435 3.577211236361049
Ar 4.394700736000041 2.5430039211144284 2.3797348791600657
Ar 2.658323383812361 1.5980131143935805 4.222182470578287
Ar 4.055472401643617 2.1072757890254934 0.23591206198188228
Ar 3.79665454777163 2.00966037087046 4.277126411553008
Ar 3.8433092703643084 2.9475848726968037 4.759192119108748
Ar 2.2303008692089255 2.938969217466675 1.1221500664031065
Ar 3.6689894136861394 4.276734837116234 1.6887025929030541
Ar 4.08693451513234 3.305549983939641 1.6842373865136078
Ar 3.355250009028443 3.390528256198171 0.7934990021170262
Ar 4.829522105876332 4.086233345298752 1.7389406101668916
Ar 3.565730512612383 3.4501393463013956 3.766831242903594
Ar 4.4463743506679165 2.936586020999975 3.5171364793700692
Ar 3.9275374126934417 3.6296652169323114 2.700820057193093
Ar 2.982484675639447 2.623277364130038 4.242016777938944
Ar 4.110051884645631 4.025766780042 4.607693644592063
Ar 0.7913786012215335 3.7772165803878948 3.5174301337833547
Ar 4.545672462112645 3.96529898133244 3.464879819657888
108
step=8800 time=44.0000 Lattice="5.038789 0 0 0 5.038789 0 0 0 5.038789" Properties=species:S:1:pos:R:3 pbc="T T T"
Ar 4.607204763207691 0.12330090923364466 4.5736527333482355
Ar 0.2691973635489746 1.7248192033280207 0.30007900706260054
Ar 4.5572125599295115 4.722776634193503 1.3092765721150303
Ar 0.6044323644953606 0.7810127184700801 4.8968665077638
Ar 4.280250754039081 0.10472520308782507 2.346349125619808
Ar 0.6913117050129619 2.5138744507821653 2.2302176710675594
Ar 2.751035961107149 3.9502016211822664 2.7777410878845252
Ar 0.07030431407765576 0.39531875674181416 0.6779275525935253
Ar 4.654834329053507 0.8667537804112873 1.7821448320278068
Ar 0.18162357222990078 0.5894229503205293 2.913188755716448
Ar 1.6666525415230837 1.1499313181762159 4.523115675264781
Ar 0.9475469199528469 0.6852223028228277 3.747880825042186
Ar 4.498859173197842 1.1629693882288972 4.958760181100255
Ar 0.4171466934843311 2.7191067685853674 0.37383180490069107
Ar 1.1278035892969969 2.2611053280529183 1.1731777760224027
Ar 0.9663109807304299 2.0217454763405187 4.335989508801165
Ar 4.737134748550323 2.162448533412953 1.20653790701373
Ar 4.725188814024234 2.947467985390828 2.70952487079603
Ar 1.6883181789517911 2.8008603925649522 1.9361005066383803
Ar 0.22294995751428176 3.1696041483959307 1.3841548329642506
Ar 0.03928607601961757 1.7477999206153834 2.491278254320542
Ar 4.346714201258975 2.133325059208015 3.243764665699625
Ar 5.001021564971948 1.105708613113581 3.896077061802792
Ar 0.310215593790661 2.4302295254037096 3.2963087560802653
Ar 0.6937226169907068 3.0913787460948448 4.094792052387686
Ar 4.4530520652954 4.268983032054206 0.2849774393530145
Ar 0.4302923500041716 3.8602850992208895 0.20344235881854256
Ar 1.3969545801169285 4.305279650071863 0.2996958954682096
Ar 0.4078014034611615 0.20748305328877378 1.7401175278478245
Ar 0.32877963385349196 4.6108144069680455 2.5380895871959495
Ar 1.6601885086648838 3.795246490197191 2.958053422901133
Ar 1.226029722391671 4.672789426845441 2.097445235809176
Ar 1.2611981886475532 2.6931620870161836 3.1622995537085132
Ar 0.4527131387298431 4.820467832513483 4.892566760165274
Ar 1.816538187200169 2.831722450847911 4.1425751613046895
Ar 1.244792906155869 4.7325190930392225 3.2697310413308776
Ar 2.5424747101640772 4.549401482396056 4.845697457471289
Ar 2.2341237881254012 3.928787136011924 0.7838583022013873
Ar 2.8512860505802893 0.24373458857330516 0.8095003452586007
Ar 3.0543177350845028 0.4908279780789631 3.343265320950908
Ar 1.9116783919065798 4.825510115526352 1.2988227383555622
Ar 1.0334372344920446 0.08625415164618498 0.849115735403028
Ar 3.374460465213163 4.7540465300584565 2.7292542260037203
Ar 2.781196265803445 0.0630367302831165 1.870971803536905
Ar 0.9853283962726206 1.6882889779688328 2.9497761339227258
Ar 2.0901857187266715 0.8796466567964981 3.4761947646380382
Ar 1.5583032509472252 0.028252493508252458 4.221271835804729
Ar 2.176552603448616 4.914411418616512 2.7319306444305305
Ar 1.961022625032242 2.139730997614225 0.09498168362978798
Ar 1.291668945855131 3.096103426913205 0.0626767631816685
Ar 2.1444898186420227 0.7932855094885858 1.4427827259623207
Ar 1.2132304852376252 3.47522425404522 1.0466896911805976
Ar 1.4147869345573216 1.1615465663212163 0.617774359600976
Ar 2.705136230739278 2.102862481686164 2.0496577857446328
Ar 1.3746753433172847 1.5444068937379405 1.839806838810337
Ar 3.1418904633300246 2.658480136573364 3.671406814043065
Ar 1.4741708774045574 0.5851149317296476 2.404905609720036
Ar 0.5713945929299402 1.1517973326766622 1.3037919259980182
Ar 2.418832140910158 1.057557682962829 0.3175665288794307
Ar 2.036840504297849 1.54575749907794 2.704017452171907
Ar 0.5350652578352668 4.301049729234515 1.358733446383486
Ar 1.8155360830617662 0.2619061661130295 0.21231985397814543
Ar 2.3049801166892054 3.3918705325943286 4.891393122185853
Ar 3.3354469028022327 4.34833269032384 0.7411481439077825
Ar 0.9132600914384379 3.636447111156648 2.0264080360533634
Ar 2.7322100623705117 0.4818370146793879 4.5260227461773725
Ar 2.49397795957842 3.648471492389136 3.847560602211069
Ar 2.026186444275919 3.908959078888145 1.8088292256554337
Ar 2.265664248990552 2.767606988185987 3.101778336112602
Ar 1.158516335639471 4.094011176537625 4.194864424030828
Ar 2.0103218315807467 1.8203275177418408 3.821539987215756
Ar 3.3620959755983137 3.79471252548627 4.480982174074986
Ar 3.630033987433296 4.925873843054862 4.455214574060632
Ar 3.1175931769064773 1.294479353149481 1.3752137718477722
Ar 3.8930776853406615 0.11724429420426588 0.40362417707143017
Ar 3.4668758180997448 0.9912380828052663 0.07521826233720486
Ar 3.730070065922457 0.27334111046178844 1.4629592633538728
Ar 3.972848842500481 1.5279237572812887 2.1541453290698964
Ar 2.984263843286591 0.9827912269289157 2.3548258879521256
Ar 4.071057854444796 1.2646513862244906 0.9126033047169976
Ar 2.6553750962923495 4.724715008159695 3.775211228592595
Ar 3.8535682641843914 0.8038598511772022 4.080962447278864
Ar 0.354499957011059 4.643214611139837 3.7272394532083077
Ar 4.17687753924183 0.9796248445628585 3.0335673237538425
Ar 2.193617942742174 1.921747667601055 1.1408855209463933
Ar 2.9133513922642176 3.2374200824956048 1.8321004315207141
Ar 3.0507274932311623 1.8624043732168762 0.5667520356483136
Ar 4.97597132535452 2.167591388014938 4.222942769865687
Ar 3.774015706007062 2.4305514899250844 1.5394903374460935
Ar 2.9609427028867454 1.7508386553815787 3.1604044288872655
Ar 4.277159600568794 4.900023563401559 3.600983662333743
Ar 3.519934769393164 2.6302133313978393 2.59694735953403
Ar 2.9484373725261355 1.54771081624475 4.378047017617783
Ar 4.045217183240165 2.228781053185641 0.3046699918225334
Ar 3.845652987364073 2.0373501882352163 4.241211842307442
Ar 4.501881571286183 3.1332536899634706 0.012862382191743217
Ar 2.0504026921935927 2.9126096611138155 0.925721006073525
Ar 3.6389696262651534 4.206190964145005 1.7643469769325835
Ar 3.886498581702662 3.516565447375089 1.074654128663281
Ar 3.119666168846628 2.9979369042823008 0.6373028379583637
Ar 4.671564966855171 3.8956662390147128 1.9647702870294377
Ar 3.6473258632491388 4.055569976386473 3.514167044739418
Ar 4.308125878709132 3.0753762719020297 3.6818788498398343
Ar 3.7513027897670588 3.600190677919513 2.585296548483334
Ar 2.8345568219059385 2.5042659647524355 4.744244968015857
Ar 4.878229730239855 3.821264354849578 4.291178427355512
Ar 0.6106663653166711 3.619459071111663 3.047375349533756
Ar 4.716067862879388 4.094394876908735 3.1329565348572976
108
step=9000 time=45.0000 Lattice="5.038789 0 0 0 5.038789 0 0 0 5.038789" Properties=species:S:1:pos:R:3 pbc="T T T"
Ar 4.797365882975951 0.5547086750991351 4.656594001611768
Ar 0.32425133126789657 1.6816358471883537 0.5033762290125817
Ar 4.867521624358338 4.494694476059711 0.8496090996479019
Ar 0.7181283507779891 0.7864473222136205 0.044687046636990094
Ar 4.497960126935407 5.00753370118869 2.291192724295458
Ar 0.532225482695597 2.3128869666816056 2.495596906462399
Ar 2.3298016835430193 4.26665933462493 2.661434930249367
Ar 4.971881203306451 0.5510223113835865 0.7871139188967734
Ar 4.714777113696913 0.9580951198610874 1.866715998177078
Ar 5.015244510997717 0.3388781276518378 3.1959488965763323
Ar 1.6311723611222468 1.2905283194791404 4.498758649988623
Ar 0.6124125663980806 0.6996067889076776 3.920494198606354
Ar 4.315688407437187 1.3329813150534484 0.10330364062352307
Ar 0.19164817440127646 2.7261182802083206 0.40091306325563025
Ar 1.063222903714079 2.4827515885960443 1.1616982878392914
Ar 0.5872245284528506 1.6675758396471199 4.298822217583213
Ar 0.054914658106600206 2.109226037228682 1.5222479037115977
Ar 4.609548100967207 2.9284487470200244 2.571147190667251
Ar 1.8555307529417633 2.7595945395325914 1.920174519955883
Ar 0.4908641624331212 3.3417400159633113 1.2631181376237068
Ar 0.31111057748016746 1.205316026154265 2.6513329259929694
Ar 4.038361461618433 2.2896504093080505 3.571067821731353
Ar 4.280841657677921 1.3990772624124366 4.115563817771822
Ar 0.043910640326482904 2.0052473448607815 3.404697471444763
Ar 0.3678644807661489 2.652177441571874 4.1717559198611
Ar 4.608996906845407 4.547890225265697 4.692227974289571
Ar 0.24672516006751358 3.7757553621795132 0.19258251688981656
Ar 1.3536829175945633 4.1596762708086885 0.18450476813192337
Ar 0.40434607041848647 4.77326107137638 1.9385268363968018
Ar 0.4966897313569327 4.250102850159289 3.039793778729118
Ar 1.4657839815867575 3.9789965355486436 3.1075370712572794
Ar 1.521409402373846 4.893801750821481 2.074044094212135
Ar 1.5496534367393686 2.8282420116079674 2.9869530156210615
Ar 0.5263419142868038 4.857279260144829 0.043781994866132455
Ar 1.4306822064264877 2.359243288315761 4.04495388630292
Ar 1.2776199419686183 0.02335129129232076 3.295748239450597
Ar 2.2648075499852096 4.561167467465357 4.773622953949508
Ar 2.6640233858932385 3.871375900885521 0.9314115758549826
Ar 2.9211679347646466 0.2576537167784246 0.33812948916453694
Ar 3.043074289875421 0.7230463896890531 3.4780504017182614
Ar 1.9655752977606453 4.785423557885863 0.9511505160461604
Ar 0.9598832934083659 0.20950737796815738 1.0526300009550686
Ar 3.4311754456832375 4.997804310231435 2.3549810290923565
Ar 2.7499702737362868 4.615174011527969 1.6998840517630927
Ar 1.2452203746126969 1.7239520910037527 3.1857657504627257
Ar 1.932425195634921 0.9298937650313713 3.5202507863902137
Ar 1.4086791293173024 5.0337983216304885 4.357914301286444
Ar 2.381293110885893 0.2987055185618048 2.659254590447998
Ar 1.1955036614732828 2.170974064252254 0.13820177568989211
Ar 1.1636233600376626 3.1240005478194246 4.734921991921639
Ar 1.8755687834805146 0.6480645351810674 1.4940091665845334
Ar 1.5450696620556692 3.3728161240465138 0.8326027501358705
Ar 1.2456286526874156 1.2152315400178026 0.798229094968551
Ar 3.5451431314420474 2.0130487887863295 1.948791217782209
Ar 1.3127041752853081 1.7449041416582596 1.9996109187861204
Ar 3.2692973883310206 2.9970936044456216 3.9875134040228826
Ar 1.4574191023521346 0.8194870034086309 2.582001258147732
Ar 0.6489324697014099 1.0026932387547622 1.5931565486486827
Ar 2.1771745332278343 1.4660460822924557 0.4631709678070085
Ar 2.2332056371345854 1.5087419976266585 2.7352359135395856
Ar 1.079130526240363 4.200509979392177 1.2783506510257194
Ar 1.7038431348357899 0.3970917331831863 0.17850349836529755
Ar 2.706580189293551 3.579553186170275 4.902601496581284
Ar 3.4381483652874136 4.279039676304836 0.2588273603833469
Ar 0.9485972925771897 3.449533385031742 2.251975019040502
Ar 2.4466383307857313 0.6255649080119222 4.362371396481966
Ar 2.5582703331127465 3.5415087108506302 3.3977160112892615
Ar 1.9875652934507488 3.8339425638185944 1.7608812356872043
Ar 2.6670708483537897 2.5456457101281207 2.499086412122261
Ar 1.202801181715829 4.072341711371729 4.128198162741702
Ar 2.458678801248181 2.1487804326221664 3.587125543449079
Ar 3.707181117393208 3.976207854912024 4.24919123782134
Ar 3.210306927058456 4.796577779303024 4.360537857437079
Ar 2.9916324301198913 0.7282616563127317 1.3035217062560562
Ar 4.105854750863615 0.2619606242297561 0.29509821068481185
Ar 3.222323925903398 1.283173253649794 0.15992014504239366
Ar 3.658083078508766 4.889224550203471 1.0797687770005764
Ar 4.453283922107819 1.8619845921509117 2.4517147231153187
Ar 3.043494526105959 1.0389907846345998 2.2650822064177736
Ar 3.981457641788526 1.2694672403530711 1.1423040117948926
Ar 2.509781721929742 4.786426163774418 3.673587399992662
Ar 3.445057589535793 0.6505195064213206 4.498818727481867
Ar 0.32324735523115183 4.662679430647147 4.03640120039156
Ar 4.0016238278407235 0.7858852647916701 2.923061465405641
Ar 2.39915106556192 1.7869674952568948 1.7394499143863327
Ar 2.9727921341392824 2.859707295571595 1.5573297735222975
Ar 3.132678419074633 2.0481961253266197 0.8957797152729172
Ar 4.718925203605788 2.2024829256888343 4.750367597824262
Ar 4.054928998804003 2.9221835029273784 1.650444437318565
Ar 3.5614923495891913 1.6817300755517923 2.916137602759484
Ar 4.118706647203924 4.920867689318632 3.8032176788646805
Ar 3.5272219003355554 2.9537232294144626 2.7503535921167197
Ar 3.244456172301339 1.701832761596254 4.0209603485883765
Ar 4.135000627673447 2.3856842885876515 0.6528288313023988
Ar 3.516159915550088 2.3263893357213195 4.8251257547724276
Ar 4.285414514046822 3.3114911483882468 4.827421109252118
Ar 2.161103871055736 2.409866881398699 0.7761719399089458
Ar 3.654666715347731 3.889972489671749 1.3842384127513945
Ar 4.429982130923201 3.6562573493000867 0.7912245529765856
Ar 3.4824456798944676 3.1308163401179687 0.6095062142651689
Ar 4.752353466717659 3.795702014459863 1.8290999693107013
Ar 3.4220820983823312 4.013307047372343 3.2002509437682867
Ar 4.214152436816438 3.3253321220435565 3.5147541958230897
Ar 3.0688589198746294 3.6949783207977176 2.2347110132548114
Ar 2.4711627958757916 2.1347763234962476 4.661675444554031
Ar 0.02900305670859786 3.5924443709152443 4.099154797148918
Ar 0.5415591102604642 3.161333450520731 3.2643606150958053
Ar 4.568872835956987 4.220441018181856 3.0792867952866287
108
step=9200 time=46.0000 Lattice="5.038789 0 0 0 5.038789 0 0 0 5.038789" Properties=species:S:1:pos:R:3 pbc="T T T"
Ar 4.747792653476104 0.12577950308133437 4.279626754911686
Ar 0.4330836662841175 1.7799619771034643 0.5530058728589526
Ar 4.552166387230074 4.540005428457144 0.9031003732623056
Ar 0.8088922149447507 0.8548270019515467 5.029081841453312
Ar 4.4808186534304255 4.754522901798926 2.148666763705105
Ar 0.5181921603248115 2.133829473073759 2.3388836892488074
Ar 1.971177723949064 3.658544778236771 2.8583922870620464
Ar 0.022041815614835335 0.8018022041320216 0.7918115209303404
Ar 4.58752249662656 0.8028563008186569 1.9828445438212463
Ar 0.16002585716875856 0.10295914438822187 2.892059110587442
Ar 1.6429063752006734 1.5318831932498371 4.689033744223441
Ar 0.9334421103127867 1.029027203969143 3.957902214275731
Ar 4.627967509256776 1.302033811328062 0.03915845882322194
Ar 5.00327170637157 2.565012556018527 5.0074387138930065
Ar 0.9250020776960022 2.415431148323973 1.26432615564509
Ar 0.3141254688775279 1.8067929331711354 4.411048489140575
Ar 4.931536810454007 2.064313800951502 1.468133164985213
Ar 4.691486498515057 2.900308840416551 2.1189465007900345
Ar 1.704253642957449 2.6007575659066973 2.019261334922315
Ar 0.32941495564572115 3.3441609202837497 1.118984376834017
Ar 0.44738002617001676 1.188274498470569 2.9508515897507785
Ar 4.553332521830607 2.6759185149220004 3.3272572564833047
Ar 4.646494917446308 1.3479882124478924 3.7771282548417076
Ar 0.5247009516800035 2.3250095349627875 3.3250430108168803
Ar 0.18476409439587005 3.139088051741544 4.079518955640218
Ar 4.502233656064659 4.250518801024891 4.90460955385121
Ar 0.34745017630863545 3.555281413075263 4.983169930414149
Ar 0.9591183415816918 4.225389539660726 0.6779639880855266
Ar 0.332482150488876 0.1047292476633012 1.8944548666628593
Ar 0.7336443414233038 4.2886603581833365 2.806419939860041
Ar 1.4100165908000366 3.5184283404632146 3.751539111396571
Ar 1.9655602337643 4.640196655770909 2.545296592553485
Ar 1.6567909582124658 2.6115192995801286 3.1105687498759327
Ar 0.3041295998389567 4.907395530779584 0.011741143118400108
Ar 1.1741773671749625 2.5343979392520435 4.06652049383477
Ar 1.912351816186912 4.608731226103672 3.693021339145381
Ar 2.1618062274287833 4.477541412527784 4.830268228874136
Ar 2.4194454042331266 3.8944180691373043 0.672763460305317
Ar 2.9442674067942765 0.08770721821853533 0.5534373438954314
Ar 3.2036919000099044 0.879049368467991 3.3721912912780354
Ar 1.833922496248535 4.70481689242419 1.1002596530616187
Ar 0.876756786586353 0.26203326995158355 0.8691564229139539
Ar 3.441533093410823 4.964060075277369 2.545461201577484
Ar 2.6212620118281102 4.896314973860174 1.703779526049959
Ar 1.3873660539409554 1.5921215906615618 3.249369708158698
Ar 2.14592390100901 0.8121037130886791 3.756357277480151
Ar 1.627075782160671 0.26072069968172923 4.55450495967584
Ar 2.3040241088038074 0.5050823514817332 2.7556568147059894
Ar 0.9569639493012726 2.6801968894550305 0.2917928862079307
Ar 1.4966383964255585 3.5872755163751897 5.000864919164188
Ar 1.78642327876285 0.6213296520079381 1.7384547668143457
Ar 1.514230171318367 3.3103802472085744 0.9942998234416408
Ar 1.304559002322598 1.3332391904571963 0.9591125784845665
Ar 3.8442106516533507 2.1061247874581923 1.9368506663683664
Ar 1.4582863619748894 1.5631136018995349 2.206860762605092
Ar 3.5274262187471446 2.775064131253979 3.7782435219183244
Ar 1.2363613687829962 0.43989897953921364 2.731587617543209
Ar 0.5743796223349918 1.1324428188304578 1.6095544617056938
Ar 2.427439313092377 1.541123689171358 0.31959109241297406
Ar 2.4629398395036666 1.6727727828180328 2.8003538682199127
Ar 1.1204461435095474 4.403711450028892 1.7648431793978918
Ar 1.927488305661445 0.49237493434966334 0.5144322237437832
Ar 2.4674553164714332 3.389011016219699 4.825963561366514
Ar 3.378190498904169 4.234981338336668 0.15239859780385573
Ar 0.7739263159291881 3.1454899486990415 2.2042986445539445
Ar 2.740047161217982 0.31251279703477297 4.463089061629015
Ar 2.596909629026331 3.0107378301935728 3.5152985558830014
Ar 1.9179349757495987 3.6959424975472843 1.8032001896978047
Ar 2.77743535648727 2.601123276531831 2.3870974468740203
Ar 0.9376412881143034 4.309920162727377 4.51075047612354
Ar 2.228625629516135 2.0093024896724248 3.8028906643282507
Ar 3.4227136497612096 3.6910846929276864 4.233042706388886
Ar 3.733537344474498 4.895123935439635 4.194991436505324
Ar 2.7278184849840628 0.9644241677030733 1.2178637494327826
Ar 4.216075701443947 0.2733203964094649 0.19230136769010353
Ar 3.375276888780638 1.0577075357140475 0.2695532332193188
Ar 3.7613193437381387 0.24649339866628348 1.2453108019566645
Ar 4.5231560439974645 1.6439532356335722 2.568679268337414
Ar 3.4008862779849087 0.9708269161881762 2.0501952510789305
Ar 3.9876674271071253 1.2943506810488121 1.1286054806427983
Ar 2.8588874075924324 4.930048406590764 3.4530366683036244
Ar 3.7691429184313705 0.9552821593955009 4.265229392892671
Ar 0.9017075836268161 5.034141209001405 3.6842859921657047
Ar 4.106127934314537 0.65241237502641 2.89063689346715
Ar 2.509301167988382 1.8000525232876141 1.7743425058904077
Ar 2.6191527881314443 2.9487234915406835 1.360860734959577
Ar 3.0944119819785048 2.1303401340588106 0.8411257167721616
Ar 4.140315995356026 2.043689715692018 4.375794337121272
Ar 3.6854043378482717 3.178651842577997 1.5080774039712825
Ar 3.6456780963869977 1.7965164181881652 3.291393025654782
Ar 4.324279491442655 4.573600405421965 3.2362751463461166
Ar 3.666575856965855 2.7609935793320592 2.7296258357610927
Ar 2.8941613887981803 1.4709732347863604 4.452975739352131
Ar 4.16095679524749 2.282448481231588 0.6237827567068354
Ar 3.171560190045159 2.5503489349684703 4.815640476856863
Ar 4.199967923439471 3.113629787636347 4.5812263885870586
Ar 1.9587850200176322 2.2290556449610004 0.9498764565275195
Ar 3.5464839826598076 4.0897868552378345 1.1867327944491073
Ar 4.377588156783796 3.4603828979625173 0.5458443640115574
Ar 3.2306866969624997 3.2243972402486167 0.5540304335100703
Ar 4.608655341383046 3.830540848597406 1.6794938629803968
Ar 3.313497756494395 3.8741765259269667 3.2135517943490615
Ar 4.287716096192895 3.7063413923924813 3.6423354130801933
Ar 2.9768433789324518 3.7678437101988207 2.0635993630809395
Ar 1.993600597751556 2.496517237942892 4.9866740303942265
Ar 0.1798988206993613 4.181077072331227 3.8140029244150666
Ar 0.07880486163467025 3.4713521540525045 2.896291012639172
Ar 4.144368205474619 3.76359625228927 2.564240676646412
108
step=9400 time=47.0000 Lattice="5.038789 0 0 0 5.038789 0 0 0 5.038789" Properties=species:S:1:pos:R:3 pbc="T T T"
Ar 4.980570739646031 0.15414202769155416 4.166347575821999
Ar 0.30589722544763276 1.6568648064226073 0.4586692461627686
Ar 4.526761690214796 4.546963917877229 0.7356748123706425
Ar 0.5191262188781735 0.8272308708214688 4.944928624635673
Ar 4.344910152157943 4.6536763654147775 2.104516462367597
Ar 0.747027202051248 2.135435982010806 2.405307014958473
Ar 1.6705524672124266 3.9586727678330114 2.8674619445461125
Ar 4.892236105693895 0.6047209692317517 0.7710460016911852
Ar 4.80209698763451 0.9630524288774077 1.7635290766433698
Ar 0.15284168386983904 0.017502292962927827 2.712978860877416
Ar 1.7113490548501842 1.4799590532981541 4.409064660584285
Ar 0.7621307113442884 0.8637318420924814 3.763079674386799
Ar 4.468954644252667 1.3105554618103934 4.97420159341505
Ar 4.911675411171021 2.6822315706755475 4.861921996438819
Ar 1.2293697548374927 2.2713042289103234 1.2833424836305105
Ar 0.2938966537184924 1.7017121864668978 4.379178936102255
Ar 0.27275391107403085 1.8770914754820274 1.5099586126681754
Ar 4.7787406189587145 2.8241622320569157 1.9462314431339602
Ar 1.5290315671334873 2.8377197410014254 2.1513753455726734
Ar 0.17286542890575113 2.6469732515512714 0.8055233739789914
Ar 0.36465260536249794 1.1445009167974487 2.647086181470661
Ar 4.53341053951295 2.189358049247341 3.9331386628723415
Ar 4.812382861140008 1.1199851448277147 3.5882144546727526
Ar 0.38986144254469407 2.0034121075092846 3.364812106924962
Ar 0.15889311956378993 3.2349740624223546 4.06907498961061
Ar 4.623825249072542 4.14966830524433 4.769317736841201
Ar 0.4577353803008461 3.7080213806219544 0.2746975908296284
Ar 0.7256593350755697 4.213829270756454 1.234911468459422
Ar 0.13372867008823852 5.000083404802107 1.6049471687188848
Ar 0.6615432110642443 4.0020279759300434 3.044899620001716
Ar 1.7375767988441526 2.9506816118560923 4.706228110197755
Ar 1.9706281166793795 4.962901319384982 2.641180829908917
Ar 1.0100956211234704 3.021518763029338 3.1259073800396258
Ar 0.3882987926158108 4.790943149292425 0.0764058209181767
Ar 1.0953276706228168 2.3497247868009916 4.042801595859133
Ar 1.88228684051558 4.282601570727 3.970599668438629
Ar 2.342654047491997 4.622119655060238 4.8470098114187765
Ar 2.1918542696892485 4.085966390630724 0.6737676521932388
Ar 2.9909187703009033 0.13778019916478912 0.6002872813639216
Ar 3.369598080888517 0.5626293303058431 3.313243048073657
Ar 1.7030099564879475 4.988026162000387 1.3848777153059988
Ar 0.8860556873190427 0.4083901473669338 0.8051604918676529
Ar 3.3599804911001225 4.833049194366409 2.3482614026924358
Ar 2.749156234992978 0.1582290758441098 1.6189688651744876
Ar 1.5346944161613294 1.6385726391433664 3.317336955111619
Ar 1.9280172903918709 0.7016920756867095 3.846773036603088
Ar 1.2324629891127483 0.22585374133586522 4.498809871519808
Ar 2.5119518731187034 0.9763699463165204 2.253492509068437
Ar 0.9365154832587587 2.4264950797329736 0.09280548822367456
Ar 1.3048221150021075 4.4860702958929215 0.3837065064354139
Ar 1.9342456490016309 0.9236630525997956 1.4249487938563121
Ar 1.0771809046388345 3.249093680761986 1.1342297592923736
Ar 1.438257199816529 1.472245637029179 0.39833759647953615
Ar 3.9399610412319266 1.895504353872321 1.9225765356720632
Ar 1.6636646718944654 1.7109296200056807 2.1480625717014052
Ar 3.342631991694213 2.516376202951976 3.812121547149622
Ar 1.4408406044545885 0.7654382752580005 2.709929758569876
Ar 0.9260289704226679 0.742298368007161 1.7919190343143172
Ar 2.4526357155451906 1.2233950661655335 0.17201196509039443
Ar 2.7752443992501328 1.720738847132479 3.1270446133562184
Ar 0.9905607746823244 4.7634190466425315 2.2256572044932974
Ar 1.937943341698327 0.36588421695915385 0.4062833140730629
Ar 2.553092236598107 3.5411230881520845 4.9039561256155375
Ar 3.327798579675297 4.27198485822321 0.27825164192926377
Ar 0.6067188874198441 3.354983230886269 2.1388457255424647
Ar 3.077049680774294 0.11058811871349564 4.3067376456931505
Ar 2.621049608442125 3.377803568765155 3.887404706228848
Ar 1.8837298053315248 3.7713696822718097 1.8294541640451374
Ar 2.530099860583847 3.0987190102860365 2.5392605057471656
Ar 0.6851116555737916 4.30170640886189 4.25192246715987
Ar 1.9778638778829956 2.559256050227241 3.4334919123822862
Ar 3.3772124097167096 4.0124743939261025 4.082312745708067
Ar 4.00549192882182 4.797005584212223 4.203415871096223
Ar 3.115851189801161 1.2717160447842226 1.2942568052244992
Ar 4.365985024387148 0.18390847083754042 0.0329779996398748
Ar 3.492326799602134 1.0220268875829646 0.2719892518620348
Ar 3.9650910655531875 0.3853395296667647 1.2403544798423267
Ar 4.518072317572939 2.0619418071982665 2.7937370355136495
Ar 3.6400475274904163 0.9746783494623199 2.1549148062935397
Ar 4.1923772668097525 1.397109540364095 0.8861087035085347
Ar 2.860259571290556 4.617296327603124 3.2560417782193767
Ar 3.839425149929955 0.8591657977670779 4.257407562991706
Ar 1.1537360156240293 4.919318201538758 3.37267430364493
Ar 4.3860009140614515 0.7397727317489098 2.7249531467953165
Ar 2.8273976327905785 2.0217112089045286 2.1313022730338016
Ar 2.6821227941798886 2.9260315740847727 1.5603794637868567
Ar 3.0621523733788054 2.1434165020984217 0.7221586730183768
Ar 3.620597537973409 1.8529718511272688 4.515640430924565
Ar 3.6819946316193803 2.8850051872336913 1.520652382357155
Ar 3.79786208448827 1.5193076858679386 3.264607760093747
Ar 4.052567168735108 4.721015250499023 3.1007228820753814
Ar 3.5897240982077077 2.6271205564317524 2.717311836619666
Ar 2.809915416473845 1.3352718767849399 4.102479130470592
Ar 4.12227534106692 2.334371519084418 0.48511557470024097
Ar 2.7841077369610394 2.505818859176323 4.6245891561288754
Ar 4.040320133845565 3.265809056145524 4.813218281166937
Ar 2.1941831051652194 2.007574687637598 1.22773618362367
Ar 3.625322043600528 4.2954608643450625 1.3091384867153075
Ar 4.468043388498149 3.331947267139768 0.8004322944730841
Ar 3.1675543552950476 3.3080870351926395 0.6835374274780351
Ar 4.8910540575843875 3.934481512852564 1.5836870628363855
Ar 3.4054916587099044 3.6283683201871035 3.0353054597180233
Ar 4.22047920595608 3.188859757602565 3.736340423993028
Ar 2.9195510216603147 3.9871906257540144 2.08452831259279
Ar 2.1043739499057326 2.8821102593186665 0.6428067814689765
Ar 4.764779454508905 4.238461057181911 3.555519433421885
Ar 4.98404425051245 3.1723829799961334 2.9650155679814825
Ar 4.163485311227227 3.614354234267264 2.366915311604718
108
step=9600 time=48.0000 Lattice="5.038789 0 0 0 5.038789 0 0 0 5.038789" Properties=species:S:1:pos:R:3 pbc="T T T"
Ar 0.19280399498532136 4.979744366524576 4.130064574425899
Ar 0.2400767927900808 1.7182883392263522 0.5597462378043687
Ar 4.8255304509175225 4.704056511270179 0.6009926590991811
Ar 0.7625840372757966 0.8718456667559074 4.600161633115044
Ar 4.257035638696001 4.973142803162501 2.0160178849883814
Ar 0.6224959311161176 2.051006754894476 2.4710795303131885
Ar 1.5108163315974599 3.7918943579521267 2.618445436078398
Ar 4.995390469310635 0.6521004090108459 0.9439430243739889
Ar 4.44427179030339 1.04799355094122 1.9778491276471926
Ar 0.14940557608760555 0.1688351050247472 2.995155214169224
Ar 1.7104300777070585 1.2634330059844154 4.348821407072262
Ar 0.8914998164327944 0.72615501558234 3.5723030824990643
Ar 4.34310045156771 1.565799057610645 4.99423522615118
Ar 4.955969947128083 2.687920652566975 0.07601571343409912
Ar 1.034189296012875 2.2113518959407017 1.4497586524774024
Ar 0.3487354114789833 1.8778358300033002 4.638730409837316
Ar 4.93856352156795 1.8964011387302981 1.5595980653180943
Ar 4.612654591659943 2.671334127219443 2.1935428337207896
Ar 1.7455864959213316 2.9009833327574484 2.020680835759988
Ar 0.20108986389551337 2.8031933849174946 1.1578233365279844
Ar 0.32925030744066647 1.2038554984794563 2.943054663161522
Ar 4.446908643028529 2.1430876991068946 3.9062555330956354
Ar 4.887951583531269 1.0793977532901518 3.805464322028251
Ar 0.4342456244228344 2.0656930550877646 3.560558479143496
Ar 0.6873093565996322 3.1442645631725537 4.068727479501615
Ar 4.584430676182978 4.265644703052383 4.567786536074235
Ar 0.503050500839755 3.7251080089504067 0.002329169603877521
Ar 0.8134663735197969 4.21591960960065 0.9984289836907582
Ar 0.2354252452452903 0.006916431917410279 1.7359008990049216
Ar 0.4691705623780761 3.9734745615487728 3.3685795309903104
Ar 1.5926719171918662 3.3506414354776806 4.771638920319193
Ar 1.963128662826309 4.894368559824536 2.3772766075897227
Ar 1.417837471629218 2.7578546557276677 3.077967840681246
Ar 0.7717297432555484 4.863683749583878 0.013298732053507633
Ar 1.355221790707461 2.3373061749543735 4.179089412321424
Ar 1.5946246811987645 3.6148484693503447 3.6534597545693375
Ar 2.2911427316235624 4.2936067386567895 4.224724697179547
Ar 2.68313637517227 4.087012228371113 0.9203566644715682
Ar 2.765306670822725 4.812469594301288 0.09907366230418295
Ar 3.1303157317582904 0.5480047636014466 3.1377736137122634
Ar 1.9385218872343963 4.886666135291116 1.3456033381945989
Ar 0.9246340629152628 0.1894749308554424 0.919194644973819
Ar 3.0443237126146516 0.01945347164951402 2.1628986702717548
Ar 2.9502764536262434 0.3382603752813547 0.8484076924870833
Ar 1.556579617812221 1.6697622267218684 3.389760945131086
Ar 2.091098131671907 0.3265614277534122 3.3288565299094746
Ar 1.5439919877703194 0.11152185377887808 4.20573287900132
Ar 2.3898807674127114 0.7520258130153616 2.0045344283063566
Ar 0.9723170498014932 2.4216092276994647 0.3149379406020422
Ar 1.6181488267612367 4.122432289012947 0.4451407992823759
Ar 1.5283910183006884 0.9593578097326866 1.3911338750541355
Ar 1.1370897418483448 3.190950013131455 1.0302665253665912
Ar 1.2640405160658699 1.405599530764707 0.30915053320902136
Ar 3.8501333188618947 2.0651466658515236 1.7742591366835507
Ar 1.5680344033059097 1.7204208347254375 2.3190712795955544
Ar 3.338183146870203 2.5648366136940575 4.007317479289277
Ar 1.3217424521257477 0.6536617727570903 2.5278641082310114
Ar 0.5283288895739914 1.1621554881061773 1.8517102691207337
Ar 2.3393980112871104 1.525628577520304 0.2943414704115739
Ar 2.4968137039179137 1.2637266739332822 2.954811896183328
Ar 0.9878407208710037 4.46667554003654 2.0051278068974816
Ar 1.878730033544064 0.4319592796942512 0.20322318899565592
Ar 2.736639715067706 3.587185039957332 4.996537694587308
Ar 3.655565433198436 4.373676503874207 0.3409508725255954
Ar 0.732091627144013 3.0641327184240668 2.1216112391375117
Ar 3.0172863684645823 0.06728190467050034 4.14629690532876
Ar 2.5252739476212045 3.2757372694828306 3.8699836625018964
Ar 1.6931591633044212 3.866507437873201 1.5133129202125482
Ar 2.6584094324938325 3.0461898529117413 2.724621140129384
Ar 1.030462829458266 4.226517230535677 4.200276982989057
Ar 2.4197542653490016 2.2565408837537344 3.4497591650622805
Ar 3.6600498994911828 4.112849720616245 4.303974660689254
Ar 4.133941884555014 0.17794987121250808 4.16476156117745
Ar 3.0828518567481056 1.4200739324249612 1.2985123331736752
Ar 4.835019049917518 0.5938752903173818 4.957419944633389
Ar 3.5090221247887476 0.5652491376886208 4.939702005714037
Ar 3.9712489345985515 0.3034074693358219 0.9797543184181728
Ar 4.306605049471257 1.767948704464682 2.827196998590595
Ar 3.5033215284342774 1.133899484039166 2.2460313617980305
Ar 4.180474093246893 1.3285873194676783 0.9522125228777515
Ar 2.8264215378442827 4.585406710619384 3.1883274718398487
Ar 3.7647605890202738 1.2646638023129924 4.098329984555502
Ar 1.2305390396330733 4.6638886663478605 3.1647382950275436
Ar 4.107242599876466 0.7897561428047344 3.1422091629190962
Ar 2.804159217587065 2.081294045270479 2.2865253215795445
Ar 2.790872216015485 2.992927407611337 1.60093642934506
Ar 2.890731379343658 2.3667962172396577 0.7929429202692222
Ar 3.3890972730482454 1.8719298383159695 4.9867333140917305
Ar 3.940941297949798 3.252611273362725 1.7183209994567221
Ar 3.351722844134888 1.7143884807069818 3.2332005211556285
Ar 3.7909997013558203 4.806551648238052 2.946224081108457
Ar 3.588882321161373 2.654526490338773 2.9108104327185202
Ar 2.7054084165446444 1.271827835442051 4.041629860390771
Ar 3.9742655144931756 2.435329965289115 0.8187527219485028
Ar 2.5514449026226442 2.3880683019845677 4.812552935680869
Ar 3.7973987000875966 3.163851220782482 4.866408972182177
Ar 2.126590434148927 2.1296736386748134 1.4017932994299769
Ar 3.6686560976058744 4.423580303647864 1.3708683899307934
Ar 4.496800844406798 3.630391708610089 0.580937838561276
Ar 3.509127319141435 3.365305833593524 0.8355791167825586
Ar 4.748834607421862 4.002411396346419 1.6545482817369606
Ar 3.3777929859977887 3.624693311575263 3.4524415960333648
Ar 4.680088377744989 3.1759678077756317 4.163667052654489
Ar 2.6608750003640385 4.057861290377031 2.1478180353961602
Ar 2.092982913899271 3.229710099637481 0.6869840171388156
Ar 4.3875217017165 4.012292475853547 3.547695263647716
Ar 0.12131265631585919 2.9488923765032062 3.0607492990183034
Ar 4.060881721111304 3.7892262583675405 2.579885276312922
108
step=9800 time=49.0000 Lattice="5.038789 0 0 0 5.038789 0 0 0 5.038789" Properties=species:S:1:pos:R:3 pbc="T T T"
Ar 0.34749354392217324 4.712205884363262 3.7648035627485648
Ar 0.011729771273550769 1.7223146003286807 0.891185469293639
Ar 4.766808457568029 4.505870709863771 0.7310443150137683
Ar 0.05129892081880853 0.3942238455273311 4.6826445965489425
Ar 3.986320187176578 0.25094617674069736 1.9698550553181813
Ar 0.7504056173776716 2.5204056219361592 2.5074500741945234
Ar 1.777899811046916 4.051718744082776 3.0995994451483884
Ar 4.7942194024473155 0.6149400592430341 0.6423599176520173
Ar 4.405628933250951 1.1213321309939608 1.465990336094878
Ar 0.01111035715194636 4.6419632548485765 2.7154161148254152
Ar 1.5538153123508396 1.3080263365765417 4.477811099334986
Ar 0.7999097701994572 0.7550113416660231 3.7881214675086157
Ar 4.760856855239482 1.399189370755772 4.913799356461357
Ar 4.919187617079204 2.4673333148948915 5.035581601785888
Ar 1.0342589221775156 2.0210864228992564 1.325745809257647
Ar 0.5320711623483354 1.9207041597374905 4.367820832757457
Ar 4.920285315926331 2.027222987247041 1.9212771025654014
Ar 4.883131830945312 3.1937952530260008 2.4506725557528943
Ar 1.8218512934475248 2.95488407132776 2.230576940018439
Ar 0.155994218414257 2.900581392765726 1.0189663036772763
Ar 0.38051534852164987 0.5943530923886359 2.825364966505651
Ar 4.328450610789587 2.1761396858342916 4.173246127795588
Ar 4.8646455279185785 1.319543776511603 3.87378884848644
Ar 0.630859582355942 1.7940487659870843 3.3584038815491373
Ar 0.6606349878661949 2.9229421014785912 4.2745030754300775
Ar 4.971316987765146 4.182118793441087 4.6926403156534
Ar 0.6782666373768094 3.5996347872074637 0.21125798324841494
Ar 0.8517040244001091 4.200225544404869 1.1569343057952213
Ar 5.018708107937703 0.22132112925264125 1.5308840279807425
Ar 0.5555334437185705 3.72791969870451 3.410272183725192
Ar 1.7376592470795675 3.1360296017421203 4.812984018707733
Ar 2.208258472840396 4.88764823358228 2.6753758153858613
Ar 1.604942985088651 2.3870046860348224 3.1473293505034263
Ar 0.6573480688750127 4.707445948211766 0.23499497085842802
Ar 1.5006669798073653 2.2954760489003085 4.12841352485859
Ar 1.5379721938675628 3.2754183902927068 3.7156708114918047
Ar 1.8656406825311744 4.328512255096674 4.1964756454056324
Ar 2.849105816864985 4.275639122343847 1.2808799853303343
Ar 2.4049917802706435 4.816459686617665 5.001132577629883
Ar 3.0917506823616683 0.465870466736134 2.9789235430200307
Ar 1.9064540512206176 5.02501668267143 1.4759685003870233
Ar 0.934016639416776 0.21909530970400667 1.0691332489824554
Ar 3.181848415112147 4.59529105683573 2.3003759409356204
Ar 2.7811875166113023 0.22851756256371358 0.8703671912720211
Ar 1.6402526696671185 1.3888206998509707 3.2179048211342414
Ar 2.0717149596739297 0.30240724778282146 3.578274556650044
Ar 1.3665331730847776 0.22128077638800295 4.581555754665214
Ar 2.755017677525214 0.5339878518773506 1.8727549894574944
Ar 0.9300329906310812 2.603056377618467 0.37452768778959544
Ar 1.7433375360319572 4.199358011194352 0.40986781700657726
Ar 1.6801511223633119 1.0737268903309163 1.505480002207978
Ar 1.3031093913176943 3.2589961454647662 1.2820281280392274
Ar 0.7340062908718065 0.987651902500009 0.3614826224073448
Ar 3.7886115871677246 2.2211739183619508 1.6487049631631046
Ar 1.5953851754416988 1.8196937095006833 2.257363147004181
Ar 3.42984531730175 2.5015180035620426 3.5753600180217524
Ar 1.5257794311778339 0.5683485652376526 2.567937362381826
Ar 0.5631242658647736 1.0526451621575836 1.7378334942499138
Ar 1.5463404347336671 1.7153481216368933 0.3849332248653538
Ar 2.51932722739823 1.4183448156752547 2.6286754315716863
Ar 0.794559154359744 4.871527978168225 2.018062179771588
Ar 1.8764773317788723 0.7242360421639688 0.43926895106338315
Ar 2.7478075213251536 3.9467059139837946 4.699904604233451
Ar 3.3213251631221623 4.5149773304055785 0.41085668828119176
Ar 0.7118767752853304 3.784666042487409 2.3610641826642267
Ar 3.328651910905263 0.003942248305718543 4.530404655217305
Ar 2.6522897148961047 3.172914321887958 3.9325622920459775
Ar 1.8198389536901396 4.02618006866265 1.8887308044964868
Ar 2.670395096215399 2.6049105662820313 2.87310944867287
Ar 0.963394613189422 4.0056762501478715 4.356634956413514
Ar 2.51475486097685 1.9993741834141732 3.6828421862978287
Ar 3.7798211535529895 4.026123250094092 4.640504428813238
Ar 4.362615806832675 4.880853108521023 4.1757929493471995
Ar 2.5873086104210254 1.4912543350746217 0.9105586307250567
Ar 4.0497733901577595 0.5063813410697496 4.967310633136192
Ar 3.012062789778829 0.8981122505417124 4.96141973294874
Ar 3.7994685955587904 0.3950682520664387 0.9559222831433286
Ar 4.375564745277896 2.179547927827176 2.777451516310001
Ar 3.4981761377431186 1.269421921634916 1.9978703986597306
Ar 3.84217161721683 1.4089826203416789 0.5373259065969423
Ar 2.797099507269146 4.661544726489271 3.62098075479536
Ar 3.8324898930093383 0.9096855502409087 3.790255231570773
Ar 1.0711832447038314 4.74921998332745 3.114022012183457
Ar 4.378263989151362 1.089693108822597 2.7064058858966575
Ar 2.851056217782663 2.195755040095894 1.9568026877623057
Ar 2.8005744719791106 3.165793635842262 1.5293411836542965
Ar 3.1079667755998726 2.5576199220811935 0.5274843486264943
Ar 3.315672291597685 1.7168964802080724 4.311201852014926
Ar 4.175661780515388 3.3478025189985274 1.51754577469344
Ar 3.473781312768688 1.6037209038831484 3.0528781976522628
Ar 4.064057726158195 5.033390067258821 3.0683601576768607
Ar 3.822057931327364 3.0923216046339466 2.612111148655319
Ar 2.595107779222878 1.020008278666287 4.072137553942246
Ar 4.21296103975572 2.3520771867247503 0.6816008807382932
Ar 2.3601727273243904 2.296309629047229 4.925988962585866
Ar 3.8424434472205506 2.906339102140793 4.691496188920957
Ar 2.1047065144661854 2.3888939128486264 1.310053800766985
Ar 3.93180758616589 4.417785477920361 1.3586552106772298
Ar 4.520039610727282 3.5430066155566395 0.3817804939595951
Ar 3.4294741411576943 3.5527018989306116 0.6237656971503368
Ar 4.9955903295372375 4.115386107832378 1.7674860154139829
Ar 3.4620376548123137 3.9293586185068663 3.4232681379554304
Ar 4.694678243422886 3.2921710254493712 4.141105493040158
Ar 2.7534718599429557 3.6087328502746425 2.7109618697352293
Ar 2.361508565498698 3.316235453483188 0.5735644761294878
Ar 4.606887046430797 4.091944629775669 3.487687491982914
Ar 0.024693493688126834 2.687077440734822 3.3371545628989505
Ar 4.160267113580355 4.049257550749834 2.3797398348311845
108
step=10000 time=50.0000 Lattice="5.038789 0 0 0 5.038789 0 0 0 5.038789" Properties=species:S:1:pos:R:3 pbc="T T T"
Ar 0.17916440070372633 4.897815636978578 3.61875659393886
Ar 0.07615718609405303 1.8838330266030408 0.9635712012889223
Ar 4.077856009691151 4.665734762749269 0.3511285587012257
Ar 0.13204527653051565 0.5164250934587353 4.576789755649019
Ar 3.7137233330515165 0.5244684135818763 1.9116938985562542
Ar 0.7751903130029839 2.560320738533841 2.3121313740604825
Ar 1.7017651403345477 3.6796975976240898 2.977670999180806
Ar 4.664649952016159 0.45890516460470976 0.6732109234571582
Ar 4.39096644986938 1.42757997840405 1.7111771119473524
Ar 0.3370167671097979 4.4575363066221945 2.6889335940482204
Ar 1.7123688989660484 1.1070587818860709 4.413488410660737
Ar 1.0820804317861465 0.6911545690449039 3.5039327616693883
Ar 4.7566807665795885 1.4746350327979583 4.96783497852517
Ar 4.650312061799076 2.669412164605668 0.04952218071268204
Ar 1.004293999339814 1.9468497789226207 1.4129845575711124
Ar 0.7561422755032872 1.6598341675136123 4.513580633476729
Ar 4.793499332134666 2.2205623233316807 2.3210210685425645
Ar 4.938591772831497 3.386131153551819 2.623967371430613
Ar 2.008247165864798 2.850141146323143 2.136645854508591
Ar 0.09242864728511892 3.101989670675602 1.5981628132692378
Ar 0.4267207784871295 0.4226564594084003 2.751029642505561
Ar 4.937863556578241 2.1226359612461887 3.955174425255442
Ar 0.10851922748127212 1.124347490162033 3.709212140418675
Ar 0.6932023794674887 1.6364535108564968 2.9094398764770917
Ar 0.6759261320197578 3.012567235515666 4.520333952542399
Ar 0.06383891835003495 3.8385753307253636 4.641931785619076
Ar 0.4347009339902539 3.4255144508155078 0.5181470522725533
Ar 1.1664250161665641 4.003952546694605 0.908630472225634
Ar 4.838092826247648 0.13432922926733304 1.8599576065034664
Ar 0.8082743161786821 3.8713591972296175 3.555432576653298
Ar 1.5569624426061404 3.137079135869374 0.41214464648126564
Ar 2.095203116668533 4.709267066248531 2.187888068251901
Ar 1.5776952042324737 2.62402726203414 3.1429667468908398
Ar 0.5573890538909126 4.821112358642812 0.3709661236515505
Ar 1.6321023893321718 2.2391120850173505 4.550601080894304
Ar 1.7109148412479391 3.1724281045123197 3.9746078891429426
Ar 1.7836309947237168 4.157939365156618 3.9624368197769058
Ar 2.8040817425321722 4.759329508949669 1.3259592388467467
Ar 2.123808242627179 4.89217848592237 4.6142579519726965
Ar 3.327531408069246 0.4179377642745463 2.9021373861493456
Ar 1.7233402120113621 4.960907128612665 1.1378266862248512
Ar 0.5996482101077728 0.39697848296581284 1.2222080639432857
Ar 3.2531784367893732 4.623024485562234 2.235808410463348
Ar 2.4718346302766285 0.5325107848666343 0.4488696754511745
Ar 1.6290301991346197 1.6024001642998165 3.5489108009812074
Ar 2.2360746447164317 0.32756825848287313 3.644470468062701
Ar 1.1749698277872778 0.015365406938368768 4.2950690027787655
Ar 2.7504728325302397 0.7636412412459203 1.9600728291807856
Ar 0.8626250594957053 2.324706760407392 0.28531143791196273
Ar 2.2415369453440164 4.153625530614106 0.5256330590340652
Ar 1.8123321127137453 1.066291740584626 1.346177215049647
Ar 1.1543129608131986 3.029641791373542 1.5110520896906665
Ar 0.5294190861849488 1.0597200005886822 0.3787514750706205
Ar 3.843687682981602 2.3652100214349003 1.9059685623451235
Ar 1.5418019718206786 1.738854806250256 2.276506840045049
Ar 3.407152979491941 2.607477202419627 3.5743827661352734
Ar 1.5790572157634555 0.6710041927642814 2.4835241126237353
Ar 0.3905269730778923 1.1961983118595847 1.9327454971342943
Ar 1.4653623662076964 1.5253606342298809 0.4804028207928451
Ar 2.451932477233637 1.2586731596811758 2.9118779526557126
Ar 1.0640544554468698 4.794673610036786 1.9908554769428282
Ar 1.401559466481231 0.34081661745689285 0.1733170604929152
Ar 2.465886688907944 3.6668735118989706 4.632125706534316
Ar 3.093963703931021 4.731312791286716 0.034453472548848764
Ar 0.8969365256613516 3.6735203293837038 2.3840427294474758
Ar 3.1111564872775985 4.832741663602698 3.91980330387988
Ar 2.6943248157024438 3.4285270430197574 3.461668260213037
Ar 2.154221544259165 3.603787490896068 1.399783791481594
Ar 2.6947238508125175 2.3396446102178974 2.9719529988365276
Ar 1.254613398299359 4.09176526274329 4.817360015063926
Ar 2.502758653609776 2.090922917082222 3.975108542108683
Ar 3.4615233083789754 3.6886375171026975 4.095801170368424
Ar 4.2766442963964675 4.456204649805413 4.358965882441575
Ar 2.838135421901035 1.4494400491095192 1.088742692619234
Ar 3.6508063573575766 0.9253826149448443 4.812807740372307
Ar 2.711030335667559 1.3729160420798745 4.71194540226119
Ar 3.6444083574057453 0.6585161180798202 0.857990958886072
Ar 4.4065782764573935 2.6830141841605273 3.2006310739200314
Ar 3.4991973063211503 1.4177099664067827 2.5625532454558004
Ar 4.080793804265554 1.5733376460215822 0.7660030201681001
Ar 2.496278461782352 4.439400599812454 3.120421551637269
Ar 4.02583672951126 0.5810675793061075 3.924387957152983
Ar 1.3994514080104459 4.670726439425241 3.0973645358406614
Ar 4.429809502395698 0.7533920520349652 2.6554592841390376
Ar 2.6156511187758937 1.8540302200223937 2.0311228960536205
Ar 3.165745241935988 3.035703942908283 1.487058576071456
Ar 3.31160939025957 2.4036249140951784 0.5258301027626175
Ar 3.8293366142673384 2.0315696288203244 4.807108058112116
Ar 4.090516195029255 3.5054069904787624 1.6964351574819423
Ar 4.059861377465327 1.7053782948629665 3.366298015300399
Ar 4.277165186099982 4.848656360882877 3.3201613564487324
Ar 3.4585810786987676 3.189166914258037 2.602432612597899
Ar 3.1531906025511476 1.3141568360593063 3.760287852525848
Ar 4.318210668467725 2.7357200554156256 1.0173323564775325
Ar 2.31821962671762 2.1575147669792973 0.2189987330586327
Ar 3.0141326854636286 2.803932706666641 4.709335470888431
Ar 2.0632358376743825 2.228044334426573 1.1858460293443254
Ar 3.869452611255882 4.635343364982503 1.3875713807846677
Ar 4.313307114542173 3.6207960522054585 0.31123534734131414
Ar 3.2820145538359276 3.98714201471705 0.8003224190897179
Ar 0.12799727259521138 4.193241645654119 1.2207937538240243
Ar 3.4432022075820563 4.181094953964389 3.182000436899233
Ar 4.217388809693068 2.8715644116719465 4.218150339050883
Ar 2.6374166248379765 3.686974631178229 2.276234985591014
Ar 2.639925254456398 3.172146200527493 0.6108407521374263
Ar 4.447560727333184 3.7257816930063035 3.4429631146601682
Ar 0.4661330131156234 2.7250651796164056 3.31843968519998
Ar 4.358098360903068 4.373724571401146 2.3404192360026053
108
step=10200 time=51.0000 Lattice="5.038789 0 0 0 5.038789 0 0 0 5.038789" Properties=species:S:1:pos:R:3 pbc="T T T"
Ar 0.14511007014703864 4.855954607267658 3.659953833844815
Ar 0.14006176852116237 1.546582443986102 1.049510948911241
Ar 3.7353103179604403 5.012071560363358 0.3266506040353875
Ar 4.758884133393129 0.3136570049055571 4.631323704493719
Ar 3.852972049300011 0.061446522304218834 2.1770722123806654
Ar 0.6588437425929558 2.413512069057144 2.2446848988108163
Ar 1.5504736343104861 3.709898192041993 3.0451051854936426
Ar 4.634600634176779 0.5246763742395415 0.6698974994523358
Ar 4.182522918237122 1.0109241941038127 1.671159186397617
Ar 0.5775859856075678 4.303324004584473 2.726926703977001
Ar 1.5379899999508235 1.0511675001563 4.397286766347602
Ar 1.1108434891073873 0.9614759371828981 3.398058699931441
Ar 4.656383863607132 1.3436397629046657 4.640618322363828
Ar 4.61082308821139 2.5241234711566243 0.2940557995427795
Ar 1.1422083717977227 1.895633363297035 1.3880654664453145
Ar 0.7233178858291759 1.7740999321705408 4.447269931379478
Ar 4.357506148883894 1.976584187196238 2.5315637622112885
Ar 0.010828102082932561 3.258326551774211 2.361069909919616
Ar 2.1315370911745077 3.2219471730263205 2.397490668561671
Ar 0.4069153278685592 2.6522443820946013 1.259773640395014
Ar 0.38737454845928687 0.3551608715879205 2.646903999952733
Ar 4.965475133292593 2.349266879654113 4.30266087765741
Ar 0.1414770410362961 1.0071944966229243 3.5860514783693493
Ar 0.2974095056210484 1.9670000937453749 3.3280305631538214
Ar 0.4394038448619232 3.2851011418695735 4.404822249456919
Ar 5.029973613805903 4.195140226622467 4.561241207676391
Ar 0.2645011888746397 3.43830451186559 0.4727856464741333
Ar 1.150018447297988 4.193798594019773 0.9021447455580675
Ar 0.04743248054471683 0.05027408030904649 1.733211757557836
Ar 0.7593768961051309 4.007837697608531 3.7847592873043165
Ar 1.5721848432708212 3.221521578554061 0.14782310005636923
Ar 2.0323715414130805 4.358247612334756 2.3820413536665406
Ar 1.4907754145592644 2.5931185352274517 3.015929753471158
Ar 0.02624992403460723 4.453851076673596 0.5617981618652054
Ar 1.6744221057178528 2.300165152029733 4.696990750687354
Ar 1.3581149736207903 3.124657600765787 3.960382400181423
Ar 1.811494511420802 4.280448093445452 4.031922757413964
Ar 3.062509501999855 4.6262880079860205 0.9505641666070583
Ar 1.8238136066458306 0.026848949616548573 4.8354472180280625
Ar 3.24202038365243 0.47961240221081824 2.9917146592775317
Ar 1.9779153880360316 0.051019448976167045 1.0760992762897152
Ar 0.8162569022077599 0.9160508452402621 1.6372537579820494
Ar 3.2264270741920176 4.330354960670464 2.0570279258379633
Ar 2.5676120275204424 0.5632723644374098 0.3893153956389614
Ar 1.9310350507767429 1.793149226423108 3.7972761088459075
Ar 2.0861602424197665 0.3383743962709133 3.5700390257278656
Ar 0.8028001445001527 0.16534065329082154 4.479434620399
Ar 2.735963036318475 0.48613120181742 2.000553902115311
Ar 0.7601899429897747 2.4165460953590094 0.29819360133469536
Ar 2.0120784157391416 4.2077325012939095 0.4730702867687637
Ar 2.0088318963621123 1.1799958109266586 1.4333222899525242
Ar 1.4215159089982627 3.107257190905928 1.2363153978559664
Ar 0.9689921221411649 1.0709546740031906 0.3018296846410592
Ar 3.2405256850245863 1.9744617551895645 1.7430869607631088
Ar 1.3005383169658473 1.5278937458459738 2.463512968892356
Ar 3.4626018723835954 2.5196379460935527 3.382442281605545
Ar 1.5651907061067747 0.5242298880056256 2.3132635296793773
Ar 0.14862079997147393 1.368007495276165 2.2481982129851845
Ar 1.8553415890410723 1.7468785419466666 0.5161476271283224
Ar 2.338005176436408 1.208370189193105 2.825819746701324
Ar 1.1650101896108618 4.692694669784996 1.8900694414741823
Ar 0.7995579066437326 0.07677815188961556 0.7648180251795678
Ar 2.520531759141906 3.716152633898223 4.5234577997057315
Ar 2.8440504830567 4.615993477498627 5.013604544983181
Ar 1.118951178225419 3.486012282822716 2.1324764123299746
Ar 3.0926917726387795 5.0097053946571695 3.9816446766217863
Ar 2.3512064586379022 3.233439585404227 3.551202598338404
Ar 2.1900913799682002 3.8465240009825137 1.4741909528221695
Ar 2.492058371999976 2.2625507721007074 2.9546877303135632
Ar 1.020969436687806 4.146354358661012 4.767997260997514
Ar 2.7654639069810187 2.391626184185541 4.170610260137801
Ar 3.4292958381675303 3.8034018633791264 3.8611884705022725
Ar 4.182835967100729 4.588081471960511 4.0324694639580025
Ar 2.863647367481712 1.5307021583358522 0.8176159930611475
Ar 3.6328134589605976 0.6994362789644066 4.676662142274783
Ar 2.5335172483369774 1.378295657169557 4.783997737466619
Ar 3.3953102879413226 0.6047657465491044 1.2283070585644267
Ar 4.550022483847444 2.736973276663373 3.2064472574833665
Ar 3.303289266282838 1.587728154410043 2.792167493824686
Ar 4.049393171434483 1.5021373085045135 0.587340282437103
Ar 2.605691956095785 4.320828646695918 3.260675733650545
Ar 4.0560156499960165 0.7067217644620214 3.7632959669584327
Ar 1.2269928052628918 4.874238929836778 3.406158918725471
Ar 4.2916782245098695 0.8377805970280604 2.7695046013482862
Ar 1.9990661318900353 2.0662004306255453 2.062590814832892
Ar 3.1496568016474664 3.123770527890093 1.5225979026116319
Ar 3.6511324774025122 2.5753704883574646 0.7108561909471912
Ar 3.5129743009583496 1.8208253732311594 4.626993488428053
Ar 4.561244381219234 3.127990079407218 1.3386587730657142
Ar 4.2275718536800575 1.7041411785000422 3.6258229433265483
Ar 4.398967282811645 4.9195001111399765 2.981111086913699
Ar 3.990261046361576 3.0575531060558507 2.2654458723024344
Ar 2.9186918285241306 1.3994010123454346 3.744200779289388
Ar 4.3882025360009935 2.0404329259405434 1.4816340355853346
Ar 2.57533113657705 2.514804795126454 0.17733853741493594
Ar 3.656611644163944 2.909097540344059 4.727727145577543
Ar 2.3807704275462993 2.459267659392997 1.1698019874532726
Ar 4.283312781267715 4.586794266129105 1.244132683383316
Ar 3.902369864229929 4.032651281738472 4.927710331091776
Ar 3.783607428352336 3.7626822352054496 0.9008605920966786
Ar 0.25053175476753287 3.972890701870207 1.4717328874343572
Ar 3.8679319382142308 4.0121135476311585 2.9194734361128187
Ar 4.477956520503506 3.332739013344833 4.25470052887912
Ar 3.1074973809009068 3.3593340908998197 2.688409256656525
Ar 2.8538566988455463 3.4716681921380053 0.5213818756781491
Ar 4.806533113091985 3.801243698149264 3.321522848105246
Ar 0.6310529155632811 3.1051533722893336 3.1024371696631885
Ar 4.433066615013899 4.0692482426400245 2.0786731076495526
108
step=10400 time=52.0000 Lattice="5.038789 0 0 0 5.038789 0 0 0 5.038789" Properties=species:S:1:pos:R:3 pbc="T T T"
Ar 0.2725201328889563 0.08825542877653822 3.6198730882745207
Ar 0.10473567006354854 1.5745068475807544 1.2536508783539206
Ar 3.6713676936037776 4.835329789095152 0.0557308669930388
Ar 4.527679656542892 0.5702668197925976 4.680079938054432
Ar 3.761171566368961 0.13859707387543424 1.8966231577729393
Ar 1.1167543752222744 2.5163621651697197 2.392754992075805
Ar 1.3130794875537033 3.478790567503971 3.0843850742022685
Ar 5.033738555987568 0.666586186956261 0.7034749793712037
Ar 4.516547382462226 0.9227222781896796 2.0381007821577817
Ar 0.6473450643570458 4.501879755859843 2.6602806518002375
Ar 1.9608436397893747 0.5518736079921 4.377223828493169
Ar 1.2038049455239503 0.828348311283563 3.6502990727830373
Ar 4.991249528200833 1.518774231446704 0.003579836794696361
Ar 4.803088055187352 2.356228797423058 0.622007089146102
Ar 0.9994525096191174 2.0244909670655615 1.4236744247358435
Ar 0.9596289607448933 1.8968167604291486 4.441432790434329
Ar 4.582879879555279 2.1140626169035857 3.066367126894246
Ar 4.996878764227812 3.7659619390193537 2.241449224921019
Ar 2.1434312440154364 2.9376521994019504 2.2886819550591353
Ar 0.3293203084567326 2.7825255403416564 1.4163099809643778
Ar 0.5408657473786878 0.5787123217665915 2.598262158331848
Ar 4.2149620019217275 2.579921571464569 4.0172459515532
Ar 0.1644536974031357 1.073713049215396 4.05936973401563
Ar 0.6613945638702434 1.6537028838646701 3.2775233249994296
Ar 0.42712811684622864 3.264257250205065 4.352571475885026
Ar 4.5329156445367955 4.547183760006424 4.497024746248105
Ar 4.868282896448133 3.556313973822877 0.1294872980139661
Ar 1.1114778356889776 4.084826879335696 0.5145552816510167
Ar 0.08273754918768042 0.03563653866517647 1.6319912012231523
Ar 0.6309120040460111 4.079568552599085 3.773615754007331
Ar 1.6434519010603514 3.1453489262074896 0.08471149865686635
Ar 1.7566296251676476 4.4098148436998175 2.3520343836118163
Ar 1.4995695459240752 2.224886714840429 3.317205297261412
Ar 4.770333961257789 4.649766307475082 0.421214371060767
Ar 1.8741972676531151 1.9483101025560683 4.858575102594176
Ar 1.4451446543385569 2.880746643448923 4.1481923352136425
Ar 1.5216059709053318 3.9546482306074937 4.382771986354389
Ar 3.0499903032090585 4.577137051451347 1.0074401356808613
Ar 1.4254795194152845 4.869314436436668 4.909105485005863
Ar 3.1266555412316035 5.027591980269084 3.0717928838159643
Ar 2.0710294034573145 4.94098209067274 1.1076588734114279
Ar 0.8285054521771528 0.8665601748504752 1.4783342859105184
Ar 2.964649280998617 4.238006898287118 2.2515367619095175
Ar 2.5701454547268505 0.23177779825116002 0.1533088763861402
Ar 2.1513435298656454 1.384688381294902 3.797343207618862
Ar 2.131402295150986 0.49507794299429597 3.1525244002360133
Ar 0.6406936335272359 0.5023885870485522 4.7572528740032105
Ar 2.864933206199423 0.4518366392751654 2.1031887499494304
Ar 0.8347068290970079 2.505809788442446 0.48238866094839605
Ar 2.188741765276627 4.155465703010729 0.49200783315493263
Ar 1.874135941954773 0.9176847880356923 0.8394466357751109
Ar 1.460477011464952 2.8853358522868526 1.2802969204357744
Ar 0.9814480143219679 1.29961149950761 0.4071045640245039
Ar 3.2600968037933677 1.4497630238566168 1.9132289063939525
Ar 1.271105418159754 1.3897310212505238 2.437475201988446
Ar 3.360511688481361 2.7656621157802523 3.5080750435691974
Ar 1.636322739171712 0.430810426205348 2.21890377642076
Ar 0.2897649880547465 1.678269035570617 2.2807365418643437
Ar 2.0040491895636623 1.9090480962817264 0.8992072456885276
Ar 2.627720955948548 1.2872323915488515 2.703704516740819
Ar 1.1036191609432078 4.555029288057409 1.5533269071728928
Ar 0.9124099737432337 0.11324850765046943 0.7127087620914757
Ar 2.446391398505075 3.3159619881336417 4.336440677215271
Ar 2.3396277054451633 4.592757060162168 4.350712507082656
Ar 0.9454917984402396 3.532090968952365 1.8776021689333644
Ar 3.2309255918604136 0.5673764908088352 4.122733311933261
Ar 2.2558739663366305 2.9558319534635684 3.3180388787751096
Ar 2.3551597474765957 3.74786326565954 1.4349654727880259
Ar 3.003473604155333 2.2096481810500608 2.6426292672943203
Ar 0.4714492764137581 4.457467484680898 4.738579479838061
Ar 2.6488962054618126 2.3019247464233197 4.176275556175648
Ar 3.2056754126016753 3.823340637338054 3.252216025639735
Ar 3.6128344119457525 4.493974831891358 4.038385060046583
Ar 3.106478671818053 1.5936672854766276 0.7969733791240897
Ar 3.5262824214975486 0.8245394364960783 0.18460983303942446
Ar 2.753772010800371 1.395998293705223 4.800259484739227
Ar 3.03640227377525 0.5583541468161781 1.0095821881744778
Ar 4.248939100035629 3.428877881473836 3.1700892597955614
Ar 3.657982368682824 0.9648088882673752 2.816727703886898
Ar 4.151550604368066 1.333942811836516 0.9642542478911516
Ar 2.2474745077984926 4.078827678450391 3.4241863804352803
Ar 4.199752498035368 0.22444127386225166 3.5308268077152096
Ar 1.3902743470699188 4.830293326817833 3.317231753839694
Ar 4.716691600766598 0.9085014218701412 3.060763782503454
Ar 2.0406509916576803 1.8829759686685361 1.9427286556337475
Ar 3.5573126128241483 3.7074633609365244 1.6103184865304172
Ar 3.749688023411866 2.3566930503948353 1.056353168675186
Ar 3.7686564169258414 1.9119445769790726 4.928311071631861
Ar 4.364331014920645 3.2037566534189725 1.107142746967321
Ar 4.2919020493589715 1.451881894102368 4.110492492062416
Ar 4.691608119573492 4.960166450670326 2.5806733490425566
Ar 4.189535306048622 3.0176564006510436 2.2180895037500714
Ar 3.388201204012113 1.6161694137567983 3.654406013985081
Ar 4.386014244107916 2.1045570122208668 1.8597259482434345
Ar 2.580647480005078 2.5046591394723507 0.31193692960544656
Ar 3.9342441858310875 2.9731008365526486 0.17349185659271443
Ar 2.7154884279352185 2.6160941939916507 1.40610039442504
Ar 4.06149355422967 0.23695729581889569 0.8867519697053589
Ar 3.1717097125579983 3.853152065304086 4.84758560279814
Ar 3.8381611802078766 4.06105379766945 0.6991656332646016
Ar 0.2683847910205229 3.976379716847998 1.1274220868853357
Ar 3.9119951858121764 4.2652332863673434 2.491683903881847
Ar 3.886667353460694 3.473559138993422 4.263010824120147
Ar 3.156338341873991 3.186096403833209 2.44691197415129
Ar 3.058923980262499 3.307720755811139 0.6601497769208102
Ar 4.595248775418241 4.270239711707383 3.497919074345688
Ar 0.3007813099821556 2.974601641915913 3.32690936465935
Ar 4.362469289444521 4.376526232040597 1.5952121107665547
108
step=10600 time=53.0000 Lattice="5.038789 0 0 0 5.038789 0 0 0 5.038789" Properties=species:S:1:pos:R:3 pbc="T T T"
Ar 0.13512783111778842 0.08547682585458771 3.4112425067058267
Ar 0.13970414405946213 1.996119120211988 1.2013800657772908
Ar 3.7406328582106205 0.0002850957059941095 5.00625763434924
Ar 4.736986483502944 0.5064049395836445 0.009360336512816815
Ar 3.4144883227243747 0.12470393459356258 1.9541881227155877
Ar 0.8603250153704981 2.464414325451859 2.9881599693250798
Ar 1.0505855687885888 3.5318674444255733 3.147617869956884
Ar 4.845814318947546 1.0360909904538864 0.9211648656648436
Ar 4.242193071279373 0.9157942562146736 1.9466761682222244
Ar 0.6891251756965344 4.530728092554388 2.8006064795717616
Ar 1.922595327340089 0.4772813478483069 4.361031167077873
Ar 1.468014528978326 0.6314641174776872 3.4540419285773094
Ar 4.77629997409142 1.5122352213505459 4.641669154577168
Ar 0.177446842815006 2.6059150088576755 0.047251183944493624
Ar 1.2891220740065323 1.984286948888562 1.912105671936767
Ar 0.7073187263141918 2.010334521110987 4.445702340958293
Ar 4.104142526979223 1.8614194483606654 2.502761938458957
Ar 0.016552061384381547 3.876906328514731 2.2736262833026695
Ar 1.6319555696612025 2.951969727754994 2.330965314885135
Ar 0.39672693348900895 2.9229175439123307 2.0603174165890863
Ar 0.7507375896181718 0.4864615071945028 2.5328306598344446
Ar 4.415345166081089 2.3349675391436864 4.054556408594365
Ar 0.4200920538190815 1.1181151994667462 3.8171691737088094
Ar 4.968707356754799 1.9791139106113633 3.2708021744863496
Ar 0.3302705056592852 3.177311793651628 4.066747704830726
Ar 4.384053210888169 4.3514274649123665 4.536312620694869
Ar 5.0092800520355 3.6423452033013013 4.98387641084103
Ar 1.1055849937222768 3.668800322345384 0.6328372305320219
Ar 0.06391325675206734 5.005249478359401 1.4734016155179757
Ar 0.38268085523955486 4.176310589709179 3.8553398338198215
Ar 1.953453370635621 2.921232105999276 0.10442323955712506
Ar 1.8014782609530822 3.914058248101391 2.435090514882678
Ar 1.7334877503178339 2.0461689323397967 3.437703422242955
Ar 4.650449519364717 4.724892836322778 0.6471049345750746
Ar 1.6390611196471367 1.4726201222466835 4.547274670040832
Ar 1.3876009217305976 2.951636562272002 3.9218229091315044
Ar 1.1122322741504447 3.5915888688506197 4.699069164832119
Ar 3.105295506519611 4.368944820389052 0.6564197547294836
Ar 1.5218937120328258 4.704237531827668 0.124795294199384
Ar 3.707752072104754 4.892045582446803 3.017037657110742
Ar 1.9064476706803026 4.833617691992204 1.1388272917700881
Ar 1.4928238388642492 0.9249221222959664 1.4446565975462702
Ar 2.8071314885139182 4.412021389485805 2.496083594551804
Ar 2.753056295357212 0.32715235637448986 0.013540843751037798
Ar 2.540499271477794 1.2227232435322628 3.965884172241372
Ar 2.736044744564864 0.27846766974036746 3.3076366838976736
Ar 0.9133965175296722 0.46321483281487047 4.65731615917205
Ar 2.3971113951635865 0.6111908953506847 2.201290220221655
Ar 0.9878703191539205 2.4716653294182844 0.7189465841151265
Ar 2.1992959877304323 3.8416779383980657 0.4370212459196431
Ar 1.7388860564243007 0.8276553523622716 0.2401878776319473
Ar 1.996525562659337 3.190317770845502 1.2347596782157797
Ar 0.7381275193290502 1.460648906039334 0.2787158662772973
Ar 3.308733717952318 1.3211149630704315 1.8456879102262909
Ar 1.256086148462465 1.2947458023812113 2.7316305805315806
Ar 3.3133419568060805 2.9477954408290024 4.196809995616211
Ar 1.8767804303324438 4.932355386751202 2.673141954431927
Ar 0.3498127331350162 1.7735743211342463 2.1790437182610827
Ar 1.8663925098379042 1.8291587146890491 0.9646638766548938
Ar 2.5246702889132107 1.3409642821029133 2.947285282398191
Ar 1.0645348069385718 4.689664964254168 1.8244281949132437
Ar 0.7241562532384667 0.38917155251480334 0.6981679414491336
Ar 2.176392177861867 3.612413248871301 4.287560400404012
Ar 2.4112700272862146 4.592863521235088 4.478417039269159
Ar 1.07920231154284 3.547679222754905 1.6680168488678644
Ar 3.3543070967205035 0.6839134952749594 4.170525073604461
Ar 2.2034787846451604 3.006233279867925 3.2487506910654163
Ar 2.5183793751729375 4.044003254111514 1.5567223506759598
Ar 3.113097920669724 2.3969035283271984 2.385750437655262
Ar 0.4910107400021673 4.498533679423386 4.988542525648579
Ar 2.370007486579799 2.442883957162626 4.196369191540002
Ar 2.9376339814676307 3.763199500765897 3.617742115336296
Ar 3.36297979625263 4.6392275351021945 3.991913779581209
Ar 3.1872581924937697 1.5550235581854488 0.8472474179156848
Ar 3.9040713329756715 1.140706074399589 0.11562638879243803
Ar 2.552105451607858 1.4263385251714997 0.0025492747189144183
Ar 2.8163861058906323 0.48799646606253655 1.1395069334849808
Ar 3.9126164627088276 2.854463490150674 3.1273067740767715
Ar 3.5858659687211505 1.0176759751147082 2.934591402645097
Ar 4.2229228807483326 2.0699230996913656 0.3615140378964739
Ar 2.0666400842275436 4.228323512492989 3.4726272688609248
Ar 4.333244704882956 0.16142159948166368 3.942627198900952
Ar 1.2853932865689064 4.719979194468772 4.098530147181444
Ar 4.944040868662597 1.051194496668785 2.9050126442911908
Ar 2.333771546789579 1.6901056380712596 1.9250925378304702
Ar 3.5122729326544504 3.5345628434731795 1.7030835929294263
Ar 3.8915193170523117 2.809555406054501 1.1003959347060472
Ar 3.5189743801344715 1.688214610476205 4.379315341938422
Ar 4.982624816346137 3.011306460727775 1.0031797957850148
Ar 4.274628826819456 1.2854480038489016 3.7523807191442575
Ar 4.539703279511889 0.102162995410666 2.4544584719972296
Ar 4.373667618069398 3.0538594851945287 2.034213942545564
Ar 3.0821123368636973 2.196417443667951 3.5096357188805962
Ar 4.232793205934174 1.8556001775278728 1.4130999712389822
Ar 2.95043411841875 2.4866261923231248 0.11573599880924054
Ar 4.042223229659698 2.9318023975737257 4.966536540658876
Ar 2.864997967948624 2.4704815561760003 1.3239987115641507
Ar 3.924038982686084 0.37402016844821084 1.0542287755999127
Ar 3.3221457901803593 3.871541688167317 4.787780654026806
Ar 4.197847557441221 3.719615348755806 0.6999896898977722
Ar 0.2143951139215627 3.9788502604398603 1.2302001055421814
Ar 3.7995688498759237 3.8150493315272893 2.6741072703907496
Ar 4.1634917645453005 3.605608501944871 3.8510137791852324
Ar 2.823857852877999 3.392436335033334 2.4717366179221982
Ar 3.1161172044970074 3.377040401525041 0.7319967557806042
Ar 4.648522972173539 4.281112079090133 3.166091053656206
Ar 5.014268458979013 3.2595316138847097 3.135837960851563
Ar 4.2008360011946895 4.424769064843088 1.6077664634587214
108
step=10800 time=54.0000 Lattice="5.038789 0 0 0 5.038789 0 0 0 5.038789" Properties=species:S:1:pos:R:3 pbc="T T T"
Ar 0.3769878640938838 0.3320468158793902 3.776236542841461
Ar 0.1615555137090241 2.1865999311872306 0.7675051808769027
Ar 3.5169113241446137 4.66194013403255 4.845963037126948
Ar 0.07321651716568092 0.6562670019105713 4.8613572038339905
Ar 3.322008329232175 0.051951993742709875 2.2597743379980546
Ar 0.7220752249012132 2.4521666536489364 2.9690783455766296
Ar 1.2036529492008512 3.626533985570118 3.734961417070506
Ar 4.715809843283987 1.0975878443902973 0.6833682333031009
Ar 4.102215067334449 0.8190401897451559 2.0681088170488597
Ar 0.8485654288034473 4.450712807822157 3.0300150331544344
Ar 2.312109796678915 0.7525324358632023 4.695106663719567
Ar 1.5951928442166494 0.4124743665361039 3.213892008934395
Ar 4.947013613155297 1.6735519044224478 4.889856726357864
Ar 1.336043779826732 2.201539803207584 0.36595765452601037
Ar 1.2010307799857989 1.7289715738209956 1.4306751350773654
Ar 0.6001543837216781 2.010306736716351 4.048830719095869
Ar 3.9705846193958636 1.6367641775962538 2.8050227863995016
Ar 4.683424401996942 3.7656037783594423 1.7017676324533206
Ar 1.7194864613915728 2.3755982822157637 2.6122671397088033
Ar 0.7963115182144602 2.581432220914199 1.9107798120995585
Ar 0.5044343267569134 0.5800274975374278 2.5556765016022
Ar 4.461582211996999 2.471281736110488 4.217678673473098
Ar 0.5408287662260219 1.3214814291800547 3.348390076163418
Ar 4.800826852811767 2.1472018055629114 3.261333787510291
Ar 0.30988547535852284 3.068326700791906 3.8570693401891445
Ar 4.472675575905673 4.306486398564006 4.619793676166941
Ar 0.3567474403282667 2.853244860794274 4.921816190607861
Ar 1.1904657753844377 4.261136068507778 0.7716146790414543
Ar 4.827838803188719 0.323576724047182 1.471547633957368
Ar 0.3652710145286347 3.9800155622463786 4.318951091338906
Ar 2.0632935025691372 3.021726476811355 0.10461579534032342
Ar 1.3975735004125418 3.460238842548554 2.636805105886915
Ar 1.4601415310310415 1.8047884833812113 3.502054492357081
Ar 4.573534953207635 4.909143986075668 0.38365830455390604
Ar 1.8576214901129342 1.5881846968384175 4.509993224963317
Ar 1.3761316971533153 2.7900619844472065 4.333998385401727
Ar 1.3275948917796783 3.843434080359466 4.846984680921991
Ar 2.9414609616486787 4.5157303984539405 1.1216140368472471
Ar 1.6568628072656284 4.9606201815627475 0.06752084266983098
Ar 3.805910562185907 4.767166843829583 3.2608723347094033
Ar 1.8412198902099086 4.963457199664445 1.251774929057054
Ar 1.215902473632613 0.7513877051876212 1.6611927772572974
Ar 2.47482099044626 4.231895099098543 2.320514190818451
Ar 2.626111463156098 0.15712534872127554 0.5445575175644781
Ar 2.520051185006186 1.397002922813501 3.654443801723525
Ar 2.7205707966827792 4.894098045718648 3.178803401859546
Ar 1.0933820053462533 1.0402289319988929 4.199177415015784
Ar 2.3733718399261705 0.4287500412590623 2.3364944101217504
Ar 0.9972931393647677 3.1063549529673 0.966661085080114
Ar 2.20098199966086 4.108406925929841 0.41382026136728994
Ar 1.813378865722022 1.0540078897170975 0.6811880054254784
Ar 1.7998225898106286 2.6628264116680285 1.5667693254322395
Ar 0.7466350518326862 1.2362613514462302 0.23830369952272193
Ar 3.239925650463298 1.5805154787597833 1.9409344126520267
Ar 1.3188863418623344 1.2242890717146584 2.586861479858345
Ar 3.254173652604949 3.0583891898828433 4.110232556501196
Ar 1.5235228134680092 4.80053677260935 2.2675841316054433
Ar 0.25552175550042744 1.5763846865847198 2.0643282117666564
Ar 2.4284798261020377 2.006011362854901 0.38288714209588426
Ar 2.24377110705198 1.489716179586908 2.5953625335271453
Ar 0.5677149149528683 4.705162837465286 1.7988290738707304
Ar 0.7016951952244272 0.3781053299652627 0.8147135471383241
Ar 2.174281509492067 3.827056520717373 4.345341412855874
Ar 2.232833482163242 4.883337083651743 4.072476804632422
Ar 0.7446481142241584 3.6110799887131235 1.813136837001023
Ar 3.108003502519101 0.4693215926063143 4.112956761486872
Ar 2.1170306991776147 3.0467178863571216 3.6013753120481176
Ar 1.700694706380499 3.8577253862755794 1.6813738492762333
Ar 3.669810612817555 2.6149086873492577 2.225827123412748
Ar 0.5935966234664352 4.747617374381888 0.024170421756273933
Ar 2.5444228715041723 2.3684751817655125 4.327679287136322
Ar 3.0097095799605014 3.4811546940892653 3.0067973149240776
Ar 3.2209951365890648 4.022775140247608 3.9937783058888954
Ar 3.4430195641347328 1.3838915867931925 0.8553721281146063
Ar 3.9205747732215492 0.909972305841954 4.994454860900752
Ar 3.046610973484006 1.5248147807328087 4.808792023414157
Ar 2.7917677585480636 0.5986236982608866 1.4167496751519808
Ar 3.9279847586460375 2.8435230877899764 3.253536792472538
Ar 3.3217589668997984 0.8460113631142825 3.09645572548007
Ar 4.303632214716397 2.2980863392345503 0.30395500350915067
Ar 1.9694890630502224 4.103174989163738 3.3385073483357224
Ar 4.367774874711247 0.26245835039738785 4.182127543496338
Ar 1.223359377613131 4.601276150024351 4.073640966013305
Ar 4.478392165281898 0.6470937022337534 3.0875445029768867
Ar 2.2658254447901056 1.5339895169436937 1.478010813429275
Ar 3.458894199396479 3.6965439133526052 1.918472942809406
Ar 3.8859675473722364 3.011163785794405 1.089392078979253
Ar 3.459519583269292 1.8929552393847804 3.961012784407928
Ar 4.985044982674071 3.3115321487847313 0.8370748581049186
Ar 4.706014864543115 1.3375678176137642 3.968177888882859
Ar 4.6760218024924525 4.882260408865773 2.5065708846453787
Ar 4.830245366926845 2.746662217958797 2.021291111921938
Ar 2.8905097154481765 2.374996795189274 3.1833152468344696
Ar 4.326330773175498 1.9890961381904089 1.3566918374545363
Ar 3.379063958291453 2.6035966068817835 0.16859732564752794
Ar 4.317094110351377 3.224389826076713 4.857543934045935
Ar 2.813009387989568 2.4102104652304526 1.2914443109001565
Ar 3.7858083668220175 0.2861787806524188 0.8591146322256489
Ar 3.1610661512058456 3.6247234408668496 0.058743054368538536
Ar 4.0285940145443515 3.9982572131685865 0.6175304316933066
Ar 0.21567875138548892 4.353248171533796 0.8993807152062844
Ar 4.131072811219635 3.7929918947233103 2.8163904165493294
Ar 4.453034696389445 3.611997046365427 3.8179710873722157
Ar 2.4551626743241424 3.176160856712247 2.2500222810511983
Ar 2.4163501465452133 3.3430829155235764 1.126395058376574
Ar 4.889885249980762 4.548279863853955 3.565597152497441
Ar 0.1981297545736685 3.4972817039067996 2.8379698183593964
Ar 4.0036013733203735 4.677486364098771 1.6338751477518032
108
step=11000 time=55.0000 Lattice="5.038789 0 0 0 5.038789 0 0 0 5.038789" Properties=species:S:1:pos:R:3 pbc="T T T"
Ar 5.012603088279721 0.2669730755203355 3.6900562758860067
Ar 0.33255404191317006 2.33147957836663 1.355908050781721
Ar 3.078072400257419 4.958021337886036 4.8903167734174655
Ar 4.939532422617437 0.38422636636069646 4.77119643363451
Ar 3.3716119099776023 0.19055531198357903 2.3090061698501936
Ar 1.098989268294209 2.022772412412531 3.2811255677546716
Ar 1.05977681300935 3.3581239992206866 3.591307370104563
Ar 0.04739179416107702 1.3134744659072404 1.0883062467462497
Ar 4.22529462094313 0.8649703943335155 2.00582879255966
Ar 0.5419182616061641 4.393841048751885 3.2224539880554715
Ar 2.3643578792840056 0.4984076338430726 4.710974438823671
Ar 1.5211908628885864 0.02933278086541364 3.2768388641859185
Ar 0.12201031896380433 1.4151777438275597 0.03124415082902731
Ar 1.2745025666759437 2.289877398521074 0.3263763717732621
Ar 1.299700622198512 1.936497967291866 1.487900064264768
Ar 0.8994067303673307 1.838436792417277 4.268629148541246
Ar 4.011900484306461 1.784589774477311 2.6854579012247957
Ar 4.430947182817146 3.756436256729995 2.035378435025243
Ar 2.0168759135522536 2.2746703906998724 2.241182145604921
Ar 0.8295095984110136 2.548104632745283 2.3882853694079045
Ar 0.6463841582892931 0.3479816490946003 2.678514885883675
Ar 4.626252381514816 2.375178397291736 4.538364495438282
Ar 0.679366815713232 0.9873087432662419 3.522488495009662
Ar 5.000129069635095 2.0299590846894864 2.946285625756167
Ar 0.24194378019548907 2.7150533643344428 3.7343835544243893
Ar 4.393717803680331 4.411282518220564 4.488428890292169
Ar 0.5179079157735645 2.7008895727439746 4.736587844776024
Ar 0.8160541827791261 4.423867733539137 0.9879633574219928
Ar 0.09518415296147151 0.40173450099505653 1.7818231351364435
Ar 0.15911279255010305 3.7376961195496987 4.1190131545723725
Ar 2.071910075969061 3.0199612114209966 0.09419865158430352
Ar 1.7516959841226292 3.2965465363042914 2.309049862796508
Ar 1.8004732468079945 1.07366896146272 3.862171245302372
Ar 4.37189240219587 4.935124665393717 0.3670379858765958
Ar 1.8601684060235533 1.597488637129142 4.876147362037903
Ar 1.4661197741458138 2.7488953327598034 4.382970435839515
Ar 0.9571869376057928 3.608411290513448 4.815280257772898
Ar 3.1422459129001172 4.948198149429414 0.9986358495107773
Ar 1.4489769670006662 0.11932531261021304 0.19319195606386352
Ar 3.8158013858283377 0.34422001978255246 3.397446428706641
Ar 1.8320428534428321 4.976090366228605 1.2162706249183772
Ar 1.0881204320434748 0.7479910737165454 1.513981249391849
Ar 2.5292006282448845 4.411247503363579 2.1009212815552507
Ar 3.0133786907643683 0.804320078627852 0.5392936824791444
Ar 2.692905533908176 1.7028938572875592 3.614061235421445
Ar 2.6020967851130723 4.768255229596869 3.0451406474443448
Ar 0.8519687307487755 0.7310801982713242 4.574285611176769
Ar 2.098812738318665 0.5738346737165494 1.8457283505930562
Ar 1.2483707968705682 3.2355586281350814 0.9205913145223439
Ar 2.3173287001011036 4.2702439789411715 0.30393715629980467
Ar 1.9511640472387395 0.8586107887205016 0.8226976297223783
Ar 2.039678161136885 2.699443699590499 1.1524247838733228
Ar 1.010182064297721 1.1830494925815207 0.4897072722278955
Ar 3.159441758225827 1.7096104621988932 2.088268686927253
Ar 1.1951248316717131 1.2205335059923228 2.540304824047497
Ar 3.2191597706015607 3.266787681729802 3.8975800803137712
Ar 1.457458490836817 4.539686642707633 2.2821399398885687
Ar 0.14280887788989788 1.4565364858514018 2.1385048831700537
Ar 2.5814572292570457 2.110718034511478 0.3999520389317871
Ar 2.170674553358686 1.4115334488625222 2.7282810474889168
Ar 0.2941497091403365 4.377339222387969 1.9295170737164964
Ar 0.3821015413876784 0.27826994319092474 0.7506241809498394
Ar 2.157844064360657 3.510536159047409 4.099257691100464
Ar 2.1813744345703934 4.656804631761255 4.00434439746443
Ar 0.7910806300509381 3.4272670939384247 1.7759074737681473
Ar 2.7020082672564176 0.6332412526022834 3.7534147231407817
Ar 1.9446045437206225 2.7358824196221634 3.3237988613952876
Ar 2.110489654527045 3.865599364237934 1.259770150430464
Ar 3.6649264985173313 3.107663902605813 2.599595287978218
Ar 0.20333095980324475 4.291841874793654 0.06358391491962773
Ar 2.5054380937089777 2.4159382386297477 4.3542267068498415
Ar 2.6923524175555116 3.610389242895429 2.993569657697001
Ar 3.2313906757494153 4.387028149155743 3.902453253676113
Ar 3.5720430312126497 1.7523602645842122 0.7716080956521528
Ar 4.087000621967755 1.3953799908908853 4.925308641101727
Ar 3.0823957863617184 1.3998065124781045 4.686823768658251
Ar 3.1436295626970074 0.8227701566489725 1.5802129617895513
Ar 4.0061284685672245 2.40454887999584 3.554964425967299
Ar 3.212747274084833 1.1217048658178066 2.94448117853412
Ar 4.526597525938363 2.287223027632747 0.6540270988128609
Ar 1.810556558605958 4.062013345796962 3.220133925645402
Ar 3.9141161581995068 0.2899543475408143 4.491347647614106
Ar 1.0863270696143126 4.719805831958895 4.375336077136043
Ar 4.657774403104396 1.0592818712116259 3.058409714268402
Ar 2.4546435212461444 1.6805235764892035 1.3033979230233201
Ar 3.313184187110645 3.961286564570231 1.6200918654016747
Ar 3.9628259267672563 3.111736410629394 1.3091619609977985
Ar 3.850741296514759 1.3881090470624944 3.7427557844345074
Ar 0.15020604559148548 3.0653200962817126 0.6370397739231132
Ar 4.8485960524127565 1.424476806655934 4.094162970022837
Ar 4.439728699341654 4.969660326125811 2.479427521381169
Ar 4.69364642615955 2.656686577542038 2.1174758971865226
Ar 2.9670934525764516 2.46930832403585 2.8784086379252023
Ar 4.058253925914953 1.9469504341586628 1.6521513814010214
Ar 3.4252858938634065 2.4787361815506475 4.922548698437616
Ar 4.274576144439608 3.4763130612509245 5.0062179272408045
Ar 3.139984184999285 2.485646539852748 1.324098520918277
Ar 4.087939543156613 0.8069477005618793 1.0107122065543508
Ar 3.1276150898595434 3.7559534508325716 4.760044002976895
Ar 3.6741252679375895 4.1384935125603635 0.4527578741529898
Ar 4.733749416368526 3.9750959792386125 0.9510785880260739
Ar 3.672833584996422 4.225729208468871 2.7967838238704017
Ar 4.259774780923285 3.3781182403441425 3.833806456220771
Ar 2.7292802689593203 3.1075255523534793 1.9890030191822492
Ar 2.948234646291773 3.285553815377173 0.6967778713565104
Ar 4.565066127246172 4.347306412567766 3.469536472752498
Ar 0.02227666298863062 3.539843476737933 2.903507714494399
Ar 4.1536787331631935 4.849824125966789 1.4078794048989878
108
step=11200 time=56.0000 Lattice="5.038789 0 0 0 5.038789 0 0 0 5.038789" Properties=species:S:1:pos:R:3 pbc="T T T"
Ar 4.960032276820487 4.966216696340098 3.5427437873446337
Ar 0.5356957050150917 2.6954389089507016 1.3565966737907762
Ar 2.9269119677575177 4.257981652913673 0.16774977927129525
Ar 4.592847734854514 0.5385936939533215 4.30741644235813
Ar 3.1591808717322585 0.18648527333547854 2.048390089520538
Ar 1.162919794944642 2.3659147725209317 3.333433847394045
Ar 1.3973669685125478 3.4387935730673767 3.2985663231798794
Ar 0.09483110122142474 1.679917697647568 0.7962283813820151
Ar 4.027259103056696 1.0970482961538774 1.8507625366895275
Ar 0.882747339546381 4.555410168215937 3.178510225488833
Ar 1.800001468091906 0.6344749496802076 4.571384684972118
Ar 1.5364709109848769 0.1992175377388245 3.566438835241725
Ar 5.034819390706665 1.5682973029303553 4.7832234683117525
Ar 1.5442843993905677 2.271742206853886 0.8532081818760434
Ar 1.0582229135796757 1.6440150553604538 1.6016461174528183
Ar 0.7376481175481269 1.9561250764056193 4.274984018551716
Ar 4.027407789649271 1.8227647786460397 2.6800328234369952
Ar 4.349920564354819 3.8816538802564162 1.9084413003804184
Ar 1.965223857556052 1.9817497293946982 2.245653769290841
Ar 0.9702240209497722 2.5331048254068724 2.3757251868301994
Ar 0.6397715922891362 0.4902342959406086 2.5598647589316554
Ar 4.880299019548219 2.5041430723317535 4.294451164404821
Ar 0.3293653399760815 0.800023200999649 3.4903268437592723
Ar 0.2846747252275629 1.8859268574649137 3.1000017659832686
Ar 0.6947696112800701 3.1980921886747358 4.023402181465598
Ar 4.075077746593521 4.112116655199532 4.646037022070945
Ar 0.5435810998705602 2.486038799533111 0.2413459482891423
Ar 0.790837465914521 4.398123467763764 1.0646817365169248
Ar 4.960204882887236 0.5851296858203809 1.6609730544182837
Ar 0.06157625747148129 3.9906493051105536 3.915739362367631
Ar 2.171749671565331 3.2468479052408514 0.2617321530888894
Ar 2.0398213974383315 3.2356036567096327 2.3251702322938868
Ar 1.4586179194691458 1.3366097064243716 3.8755264890969396
Ar 4.208521295437267 4.91590709899646 0.21576422681189167
Ar 1.8131086994117624 1.8115633457058047 4.813689187497058
Ar 1.4664041541776978 2.7205682054368907 4.469148344542653
Ar 0.811924144029115 3.656070248431411 4.9555983073297885
Ar 2.818883233990364 4.8258354197321145 1.0457507290619168
Ar 1.3059798222068097 0.18250394147623442 0.42246931586400216
Ar 3.9457501176455136 0.011037504836623297 3.249909191500093
Ar 1.8182749589130394 4.769454016094685 1.2403827508854206
Ar 0.9461024214155144 0.3293892182267715 1.5797350574315019
Ar 2.4804794965940435 4.138243677553134 2.0869183007808054
Ar 3.3106518076003395 0.5705299151716863 0.3721924488084337
Ar 2.3965815610750347 1.7935929445314358 3.8979624012557927
Ar 2.8119077984796323 0.026083788908513483 3.060656690610103
Ar 0.6997690679476575 0.7854914857388804 4.451089602650289
Ar 1.9702227776201897 0.5535744597094165 1.9135963569769792
Ar 1.185667445026572 3.403482526327814 1.0242980272501068
Ar 1.7210762168992735 4.229541274036731 0.26331750224910344
Ar 2.2314085275746818 0.805172200089118 0.6087135710484668
Ar 2.470210272337778 2.6499534705649084 1.4417058280640178
Ar 1.1411583393275244 1.2344400993020554 0.5765236035060475
Ar 2.9275376048654365 1.4884439728547012 2.331655641092866
Ar 1.1894923360389311 1.4095665445864358 2.673288000610945
Ar 3.1548491838228796 2.921114373817918 3.794526013312132
Ar 1.233992788062169 4.085110666209245 1.9503032272835061
Ar 0.13002443534240235 1.6150359950122517 2.0542047009192035
Ar 2.5316348434627765 1.967169790422025 0.5040852867457722
Ar 2.1101958133159493 1.0348836002670863 3.074425273893224
Ar 0.25170517567561534 4.637288808774679 2.163263926255637
Ar 0.22898070796956474 0.5938607410500527 0.35421831340472665
Ar 2.2661016933607825 3.595325208902187 4.203489050439078
Ar 2.445069093726208 4.852952492066192 4.391966399392896
Ar 0.3124397467727456 3.552124603218115 2.2067911651772545
Ar 2.852843798899775 0.7529561062393771 3.883121005821538
Ar 2.18029918658494 2.7647416702223255 3.5411800011181342
Ar 2.374499500772981 3.8466612705920986 1.0754956458756881
Ar 4.0906551935285025 3.0229500527293007 2.7467140884365975
Ar 0.24421991711518223 4.592643702471737 4.942114731602832
Ar 2.595623781112214 2.569506616107856 4.620643448154647
Ar 2.7515571534900833 3.554361195940958 3.0100977872972847
Ar 3.3135381977770946 4.272634747462186 3.6737759698570596
Ar 3.5975769228214127 1.9051374900498335 0.5263975939075255
Ar 3.7760305015705535 1.1786702691649613 4.732870170412817
Ar 2.66305388724387 1.2673125462779218 4.770681521915668
Ar 3.221682066892796 1.1194102532676997 1.3248300421882635
Ar 4.084561979857684 2.3568284864407647 3.6225161839912783
Ar 3.527533138362104 0.8831914255825459 2.824381967076509
Ar 4.560811272113399 2.5044658376565474 0.41810854513324486
Ar 2.020480077785592 4.272708260390803 3.436256237202606
Ar 3.5120116287341454 0.040716133183572964 4.325752532417209
Ar 1.1774336224447093 4.482820804977261 4.513753511939809
Ar 4.6259220038958535 0.8141642636685767 2.8075447140895133
Ar 2.1612222470606937 1.4413852428746456 1.3893580460975876
Ar 3.372412811633112 4.1800882528569865 1.694117284891495
Ar 4.158987667804267 2.963277239643257 1.3349031045581319
Ar 3.4252736520299583 1.581561079485826 3.7028099108737913
Ar 0.12179698652372255 3.517704917283746 0.8574607288817271
Ar 4.561269657985308 1.4399968178814258 3.850792825837365
Ar 4.267181493435105 0.0005242690977977915 2.224445106641286
Ar 4.914712795760043 2.6128610627251625 2.3171893266274317
Ar 2.87531912648016 2.4625957547406467 2.8799084889496482
Ar 4.458227436703842 1.9873050415881013 1.4943292803829964
Ar 3.7456719364117386 2.3565844626797228 4.563604214730634
Ar 4.838226720068674 3.4182153011013527 4.843668725896911
Ar 3.4869658128064662 2.2082394259229967 1.703988553329851
Ar 4.219171155640114 0.9741076504829651 0.7252303624703105
Ar 3.2381066317727996 3.3372080220976494 4.750146941790749
Ar 3.900406889689431 3.818125055743588 0.7573878551449591
Ar 4.827803807553775 4.715610916874438 1.1387748473668624
Ar 3.5613026895926847 4.245926559935525 2.7027381547620775
Ar 4.124385942128073 3.467218693204464 3.746720009274925
Ar 3.04951512314989 3.153432724336916 2.0677323464648207
Ar 3.17099655944199 2.878672053835214 0.6732287217542868
Ar 4.590587288302109 4.056082616598019 2.9084015056061188
Ar 4.996704604600945 3.1779321677100225 3.236425132261834
Ar 3.8663201046062676 0.11067288350606351 1.181746776976977
108
step=11400 time=57.0000 Lattice="5.038789 0 0 0 5.038789 0 0 0 5.038789" Properties=species:S:1:pos:R:3 pbc="T T T"
Ar 0.03430479787829522 0.06578258753525171 2.955067319761747
Ar 0.24102996492697132 2.4879519364661786 1.3236106367684572
Ar 3.145089446139381 4.4150309608982985 0.03993779632116333
Ar 0.1388509335160975 0.027813338286970735 4.299859581791163
Ar 3.3373548793636587 0.28373368998383375 2.1087475760822976
Ar 1.5408344386578208 2.3818595527557207 3.567215097147242
Ar 1.026884739069881 3.4308008604055438 3.2861609359624206
Ar 0.04099093037262274 1.6315281155297623 0.5671184552630391
Ar 3.912704087305459 1.132003400998244 1.8478873455268732
Ar 0.946563460109888 4.596269740455604 3.1325453435036437
Ar 2.1900554007882422 0.6247199817142896 4.563125360816737
Ar 1.6038768240942813 0.2578662095236109 3.625138352870899
Ar 4.88681475224696 1.1908560434164115 4.67032006429885
Ar 1.3449988418149323 2.132983471297752 0.971464937034486
Ar 0.6701019549628668 1.5324608301678693 1.4635110374084972
Ar 0.8756423591129301 1.8380397628619043 4.505612785224282
Ar 3.960031764400531 2.0677071761092347 2.3698795491540614
Ar 4.324244751853185 3.9448166826477307 2.1037049264116865
Ar 2.2086114305159854 1.900322829818792 2.9644381878143733
Ar 0.9075859707764371 2.7936437157686744 2.352784482125667
Ar 1.0637824255601769 0.45861155829529504 2.3747393778360517
Ar 4.748161634323608 2.2858154366922014 4.286417911588167
Ar 0.7986274067243458 1.0118628362355706 3.4139994791019754
Ar 0.5354465837026868 2.0714320170915514 3.5604818055991903
Ar 0.4759828134775371 2.928265300386059 4.088316522157816
Ar 4.362595798935336 4.218181850398488 4.444254876546697
Ar 0.43246608597902825 2.5371655135052973 0.2697439600362393
Ar 0.8413360482558386 4.402090188515305 0.8355790373815071
Ar 4.815258071299181 0.9384139479692194 1.4459641299297097
Ar 0.4277372583179075 4.034867776846726 4.053129432185384
Ar 1.9811733933655191 3.210837494870005 0.6079751872596244
Ar 1.877909083417922 3.2771943735403117 2.7729562340668235
Ar 1.804169368496087 1.3945254110428464 3.8973917850983315
Ar 4.068559019839153 0.10347261218887085 5.0209328391944785
Ar 1.8595760259804577 1.6090646812967713 4.917071256261427
Ar 1.4018786648851727 2.772025835710866 4.721475117248684
Ar 0.8937031327883762 3.5473080610620493 0.07209539978512859
Ar 2.517814123518889 4.894907710312366 1.1119623580902671
Ar 1.3050423886944718 4.707784596783773 4.625101937931521
Ar 4.293255974151094 0.061675438676366774 3.6652690533384384
Ar 1.6017019202536764 4.852579242567153 1.479539101107708
Ar 0.7844211502822638 0.44073359777632404 1.2104460795310161
Ar 2.371588478854147 4.542309116130842 2.2218539335133975
Ar 3.0718614302575147 0.45064504013860274 5.028242567661944
Ar 2.5242246065838385 2.100493334066856 4.103329885484233
Ar 2.666880028994694 4.964224764052587 3.187512816532032
Ar 1.104350307267586 0.789453129861805 4.447120640289393
Ar 2.233266162980747 0.5293735974071825 2.0017457844552315
Ar 1.2201238991273582 3.260489351762958 1.3035991597061516
Ar 1.8471248332856658 4.208977588817415 0.33548775474184583
Ar 2.0302058622238146 0.7826179912553811 0.8678817610411148
Ar 2.1627851931162674 2.659198667710842 1.749820488049918
Ar 0.9751102893945336 1.1074016451349036 0.37061517658861015
Ar 2.8749602778723227 1.1327794221383212 2.6385494054906617
Ar 1.1027898517751897 1.7682847959484085 2.6746765924300235
Ar 3.2461057140976286 2.843541510878178 3.644506402786178
Ar 1.2523259907549915 4.118901862609789 2.1904503424792985
Ar 0.09686303864645064 2.064775223640177 2.303340169805967
Ar 2.311057728074593 1.9759503500559663 0.9097614326151571
Ar 1.7364985411525298 0.9880481163779836 2.9317417381444466
Ar 0.3162531249573005 4.773917573438098 1.974481808569368
Ar 0.14759428582737566 0.3129191055354455 0.2803412553986043
Ar 2.7994704834546726 3.5495292308131625 4.579801674289371
Ar 2.3168278095275014 4.609375000595703 4.43449261169628
Ar 0.19347747560534817 3.7183321354873247 1.764956050724679
Ar 2.8425022725769744 0.9711314574045599 3.608140054788435
Ar 2.220317596475935 3.118921209176048 3.7461974627383494
Ar 2.2805231988183134 3.7923861400480634 1.5234487243074235
Ar 3.741534972675864 3.195217686060688 2.7366643360320326
Ar 0.16846373759098285 4.336727770502509 5.021702940933348
Ar 2.488502572237106 2.6055265089872806 5.030058055781361
Ar 2.832930188430139 3.6956201831468163 3.032203159892293
Ar 3.43706622663162 4.0273562173540824 3.9067778186852204
Ar 3.39427031439306 2.241726417255273 0.9072440122799338
Ar 3.930305500335377 0.8924301075477395 4.172611716902316
Ar 2.9236513690861936 1.4624271445123926 0.16454917593649748
Ar 2.966842376820008 1.0147810904428585 1.301674219846949
Ar 4.348034540737444 2.3579128525593465 3.3851001685891124
Ar 3.824140939483425 0.7757684475628104 3.009862973907778
Ar 4.278913148490789 2.2039777519143295 0.27152349115363267
Ar 1.9322755016601119 4.2546104650935215 3.262500786482338
Ar 3.208298868368225 4.983870886219794 4.030350708427949
Ar 1.4559722819769647 3.7022090582772527 4.261410753413987
Ar 4.758056907544389 1.0521277589124776 2.5963730375087604
Ar 1.7530773714613648 1.4565461057130245 1.816877731765003
Ar 3.3775273690524306 4.173674658421922 1.7729283701001677
Ar 4.079575337968861 3.032813191229025 0.9609608292851757
Ar 3.4940893913130555 1.8270442942067888 3.2903076048428472
Ar 0.1412218169290442 3.461315476438282 0.8202636044575906
Ar 4.688921605842197 1.3993069517774082 3.6038312331186866
Ar 4.273016438207569 0.017800877010757814 1.9709400687908478
Ar 4.513104216432589 2.8587709963903194 1.9913341803060318
Ar 2.882841222776612 2.656498086994846 2.667730186091951
Ar 4.355671424173461 1.9784881513951376 1.3709386716603915
Ar 3.5447100878048095 1.9825778087136776 4.5212344461275
Ar 4.884626292518974 3.3087978584980355 4.863115302245346
Ar 3.0447643238663926 1.9644512504899867 1.8779886409319744
Ar 3.9635824816323573 1.128706253372307 0.607480317758424
Ar 3.838724720172407 3.1699385606420942 4.808145089389856
Ar 4.042075953410535 4.061603517903475 0.4741123293327628
Ar 4.7378578374418865 4.761966271371135 1.0724125855483335
Ar 3.633925375019892 4.4016168769361625 2.7712938032478243
Ar 4.358105322610113 3.291948387611209 3.8432006524505025
Ar 3.1268257979719327 2.9319748565233725 1.5549624933975892
Ar 3.108902061664014 3.4132834720147973 0.6042161527956227
Ar 4.691642979861962 4.202243092888604 3.362557248251075
Ar 0.04829428035177794 3.159123678303986 2.9830560628984024
Ar 3.57240411886686 5.022818253878467 1.056596844802503
108
step=11600 time=58.0000 Lattice="5.038789 0 0 0 5.038789 0 0 0 5.038789" Properties=species:S:1:pos:R:3 pbc="T T T"
Ar 4.936921766038626 5.0006039885813305 3.075152584244852
Ar 0.2666301837200658 2.5329791591033857 1.0739279276723974
Ar 3.202623345055876 4.229970273408921 0.000302873073776322
Ar 0.631802993972417 4.864729672876698 4.385213253917068
Ar 3.285579120123355 0.24170239291977103 2.074855075376687
Ar 1.73028729608975 2.817561135627469 3.7467962724957573
Ar 1.0792266381706161 3.316833516657317 3.073420395243932
Ar 0.13671534217121284 1.6975509992240236 0.24353770709761002
Ar 3.854631391857869 1.0943442310511822 1.5328653441809381
Ar 0.8755216196151301 4.443637769528818 3.169916731061813
Ar 2.1602594463310383 0.7603310678920601 4.74647796146062
Ar 1.543791822411737 0.14958177270417877 4.172175833745339
Ar 0.33808272510141296 1.143974725963881 4.234263818206857
Ar 1.1182350368533251 2.0947939378920823 0.6921912392299954
Ar 0.5039516538859171 1.6412491024770504 1.7488354891645086
Ar 0.7315648179705844 2.044343041748312 4.50611122796762
Ar 3.791027841808692 1.9753628063767024 2.3590422251504206
Ar 4.501616764420362 4.02586675288331 2.4593068369001165
Ar 1.7883156122497508 1.965386750908496 2.6679733853144505
Ar 0.8857314352141782 2.4536724829931567 2.4232093176393152
Ar 0.9543588313119258 0.2857259697839973 2.5661534545978557
Ar 4.736286071559286 2.0413661752583416 4.384821072911259
Ar 0.7957948769387462 0.5190114663738787 3.51642011456703
Ar 0.4097286823618216 2.2609806849022345 3.4546731077181994
Ar 0.7067270777889534 3.1350075917560174 4.0437608398410845
Ar 4.121716142871376 4.14996150114363 4.457032347070403
Ar 0.3223055167895754 2.8392012985932253 0.10738287258711156
Ar 0.828467951986917 4.367160814137451 0.9135366985054449
Ar 4.942530950259783 0.8944760439692584 1.2203274288874402
Ar 0.06172868953901713 4.0741243318419995 3.785200171672221
Ar 2.2113821380926177 2.8447838020562624 0.8027236644496345
Ar 1.892707032210156 3.062344621194306 2.5651945834971643
Ar 1.1860330721182721 1.6232405870544073 3.608092349991327
Ar 3.9124187002861333 4.995413348243253 4.960187866488371
Ar 1.977822721399239 2.0387384237698636 4.840461299389463
Ar 1.2994074189733673 2.7766318305798934 4.876918630213952
Ar 1.0648571722552578 3.8590452142634555 4.96427515030736
Ar 2.8974251884831883 4.574226955274522 1.1139042246797815
Ar 1.2595023573724933 4.941610783552667 0.1506494999237848
Ar 4.4793786554549735 0.15281913291773858 4.189632516531557
Ar 1.8144222805074282 4.672332387575518 1.3086896666627987
Ar 0.8234512129656385 0.29637051351426225 1.5177483115396133
Ar 2.5082015202809074 4.483411564161368 2.0817536926070987
Ar 2.8787432780589786 0.25869917142670895 0.33883374126265703
Ar 2.710496265040477 2.437113088758394 4.177218939415082
Ar 2.8305176490384487 0.48139915043028547 3.032455117504278
Ar 1.1587999614548572 0.9236084051498237 4.809432363541735
Ar 1.994980051554332 0.43614207431646174 2.0085914229172257
Ar 1.099583209518457 3.2129350491211848 0.8809868350620976
Ar 2.1681140395877896 4.197493780484466 0.37162496189455346
Ar 1.8212546139608203 0.6411093853718346 0.920964138352864
Ar 1.5523701455929213 2.563842363611883 1.653818048002301
Ar 0.8399390906823418 1.0668384556766923 0.8654546710071399
Ar 2.768473275819169 1.4830933815243301 2.3079622638791566
Ar 0.5550405212955309 1.3594452522250013 2.8570523180449765
Ar 3.508082595972706 2.963953802007539 3.7034210618440224
Ar 1.547292516797899 4.096260836624333 2.292707298366902
Ar 4.873932481904436 2.07251671979233 2.548633896571889
Ar 2.115754554523619 1.8246337403117343 0.93563802952543
Ar 1.778740269282964 0.80681589321454 3.0239666644714958
Ar 0.3719322810049621 4.480267407960071 1.928433347459869
Ar 0.19975507922613078 0.6062672086817661 0.11248194357166506
Ar 2.338587485930969 3.200056144316403 4.865231170830758
Ar 2.3591050211176925 4.5996021616303695 4.455512740297049
Ar 0.7274966283646644 3.4495539489017735 2.010940537359266
Ar 2.2950568603588875 1.549061941262979 3.8838980817926934
Ar 2.629897806356099 3.62082001187217 3.923646910604865
Ar 2.203498454078302 3.6962715628941756 1.4404751255573525
Ar 4.019980221309855 2.920189095007449 2.766822493272102
Ar 0.04303756805582687 4.296494539008215 4.9953157313294065
Ar 3.00324637005722 2.194154004505272 0.1290863971014331
Ar 3.2292004127935625 3.6479103343893313 2.708984073347309
Ar 3.232238565386651 4.605980895612155 3.832014208335679
Ar 3.356915758242905 2.0424146360063493 1.2190560458448991
Ar 4.1730661259059625 1.1868393742045933 4.2840713731663085
Ar 3.1389538717255148 1.1791792710952698 4.619110720684259
Ar 2.832689507118772 0.771167965432535 1.2977440590507245
Ar 4.4603817104201875 2.0465722131523396 3.3960758954440053
Ar 3.881010056627841 0.9429971714624529 2.64376908526141
Ar 4.1791725156844 2.0046617049031 0.2749118390960387
Ar 1.9963047545568937 4.730878938025078 3.2701088185282283
Ar 3.5264811216037466 0.5297768585274599 3.7104896921341295
Ar 1.504745884108631 3.8707198654716253 4.02377917548217
Ar 4.910082561333793 0.8397356327699945 2.3118725124888773
Ar 1.6366730431860141 1.4329934687738315 1.7212299340617443
Ar 3.86828989609048 3.9584082002400556 1.692204989219197
Ar 4.085810013348526 3.060907352792581 0.8275717966670079
Ar 3.4246365900330527 1.5432028218060745 3.586828619820203
Ar 5.02017011774612 3.6996753073737243 0.8482060365028039
Ar 4.707007877144283 1.043815317998143 3.44446002151533
Ar 4.44927537013167 4.962946445541625 1.9767490694484093
Ar 4.725502976941242 3.2221227512875563 1.8286754691004412
Ar 2.667024903516036 2.518598581250856 3.0585471700491285
Ar 4.436761821293828 1.96958127399813 1.2659952240506114
Ar 3.6786595380009524 2.149411056760911 4.383049219618954
Ar 4.375030744509123 3.176865668585641 4.747186206998197
Ar 2.5680315778656717 2.483609736536249 1.9338226321982208
Ar 4.17462560801802 0.944911291216516 0.2725685593288229
Ar 3.382900884370743 3.1827993024336823 4.771182138587787
Ar 4.073779103829639 4.078423661491289 0.6580934021527981
Ar 4.767695120931564 4.9230060295082945 0.8935854814068868
Ar 3.7052595022673813 4.814615469602385 2.9335445207164264
Ar 4.548440088809126 3.0959863926223967 3.765638447285427
Ar 3.5838712165022875 2.9590121433444283 1.7316766612203722
Ar 3.1137312642765944 3.5069158155807667 0.7952105544560415
Ar 4.024023692780538 3.9131428700401467 3.432844385419151
Ar 5.004459780296541 3.1592079795566224 2.814412567084056
Ar 3.727588589900166 0.11327857989517483 1.1023796577179483
108
step=11800 time=59.0000 Lattice="5.038789 0 0 0 5.038789 0 0 0 5.038789" Properties=species:S:1:pos:R:3 pbc="T T T"
Ar 0.14768397495408495 0.03851450157328273 3.0394854372486853
Ar 0.42373825470537074 2.665757784773338 1.1881904241920522
Ar 2.8039041742120228 4.273579805735191 4.996495774599151
Ar 0.8912234844490527 4.383341469174054 4.19238219797128
Ar 3.292152333064648 0.013876752667188807 2.068068485235579
Ar 1.7489836716861775 2.3693119452987377 3.790159666865553
Ar 1.0256384356287755 3.062894469587961 3.338131888790865
Ar 0.008134829892625784 1.6691177109023803 0.4391371548866825
Ar 3.7497574048985283 0.9732193259919157 1.6388104954153475
Ar 0.8029779528789097 4.122572911380882 3.051327465624106
Ar 2.3736289543563243 0.9356312750297585 4.956213004861852
Ar 1.838397017578933 0.38432045740075227 4.151378820813873
Ar 0.1625666417165725 1.3846288081486735 4.237520285756802
Ar 0.9515319290495132 2.228671950807346 0.23262461517406746
Ar 0.4379088805809249 1.5584975708555198 1.6083463936083051
Ar 0.6611025150213357 2.358113512592891 4.228540579999146
Ar 3.3469721107999884 2.103660404757685 2.3201234079870434
Ar 4.865178432416924 4.011570309022094 2.53693917570986
Ar 1.418978590139527 2.0177953064024154 2.7911211504891003
Ar 0.5392863140145997 2.369264554433642 2.236889986598583
Ar 1.247135758586169 0.4676271373001671 2.480243006822321
Ar 4.655183013290526 2.319888084361783 4.655482896333472
Ar 0.8073843917391744 0.44753396645081256 3.6126183502375087
Ar 0.3291253761822423 2.135013774311387 3.2783465470706825
Ar 0.1389943556462274 3.222105633367699 4.051180429920688
Ar 3.8549508259555374 4.1597219104012115 4.467236859709075
Ar 0.3902929292484302 3.1124130708911184 0.2363837088125798
Ar 1.345467544711263 4.607894222380674 1.3435759527375317
Ar 4.803578794996646 0.7882350083105683 1.2025380407354371
Ar 4.990198493903888 4.279414445723854 3.7952444794820557
Ar 1.9745011087599653 2.914201463048861 0.559630723828534
Ar 1.975773416437902 3.233707179923066 2.8338559081532484
Ar 1.1465462625121818 1.3793490942320683 3.640425320129506
Ar 4.083284370947677 0.07402233487346314 4.941535480788685
Ar 1.9019688611102852 2.0967953493302818 4.8462608221630195
Ar 1.2292446412384734 3.2153678887170445 4.4362208747455325
Ar 0.9159655777077147 4.1505587517827935 0.25448900692081033
Ar 3.3244122590716447 3.9587124042996784 0.8867285771730619
Ar 0.9787081483735954 0.16739042868100346 4.8305220105923095
Ar 4.801894042956406 0.342695750428093 4.142607696581371
Ar 2.440938544720113 4.481960367876284 1.4344699060122272
Ar 0.7265028482855159 0.5031355785408882 1.5843124646306153
Ar 2.7909468053191437 4.268954459994629 2.670981858424342
Ar 3.213759252412355 0.024441855972927543 0.5585614578424953
Ar 2.7539047514373483 2.5485287192222694 4.050653811736111
Ar 2.851913126950874 0.23682795182051755 3.244398068019269
Ar 1.2498632509661456 1.2308193250203283 4.707228782549599
Ar 2.2933276852329296 0.12739128768840638 2.238347940409918
Ar 1.2193701118618547 3.518161999905408 1.2110475039280226
Ar 2.0536135480344577 3.883107005174094 0.6066989130260068
Ar 1.7663398790046227 0.19736907853744895 0.4771270989012311
Ar 1.3175344449176218 2.1835582319122397 1.620685958370162
Ar 0.9095692884120159 1.1184484080657195 0.6555342737085025
Ar 2.6481476597896996 1.2195745859168021 2.18246048653235
Ar 0.5357765788919034 1.148122869495259 2.696649482576729
Ar 3.4830476266179673 2.508699529935825 3.2742926107176302
Ar 1.739195231415445 4.1620567262132955 2.3722431525877004
Ar 4.489624080829639 2.1777116496725757 2.5334458848858157
Ar 1.9435465303407946 1.6611470446229453 0.8020190655844263
Ar 2.0428567139719314 0.9160431845560798 3.0065763613684857
Ar 0.6079989535570438 4.404658413487542 2.034275756608301
Ar 0.056286972433885314 0.6433059620992678 0.18387499733957746
Ar 2.3117388367883698 3.3427174177468566 4.645728085230148
Ar 1.7991863909425003 4.38461027588886 4.727380585036
Ar 0.7590691964623215 3.413919639378294 2.2717959018987126
Ar 2.0230871017271914 1.3378875193770627 4.018753600109853
Ar 3.2341428313790757 3.4539214864088166 3.698515438027091
Ar 2.2530055990073636 3.434570623888706 1.7358765299153467
Ar 4.079002846707165 3.331286285851112 2.6333466886373134
Ar 4.998742022952038 4.4537569545159705 4.838419465975194
Ar 2.8103972546460865 2.4045021849401547 0.12399553774159243
Ar 3.0605366021025593 3.219440129089817 2.3853612262106902
Ar 2.993125176174461 0.34290792733320363 4.33753265246298
Ar 2.9964840103762875 1.7450778506854094 1.0762355870633615
Ar 4.199453282253107 1.2949360053075576 4.330013050883649
Ar 3.03933735876687 1.5783624726224545 4.394510199122998
Ar 2.6097475885288057 0.723059025629685 1.0702473392803802
Ar 4.423873742277313 2.2168567413831948 3.5932223738996028
Ar 3.763371582483021 1.1371614604916593 2.713348995758366
Ar 3.8700818322740784 2.1596830216291467 0.4368048210027401
Ar 1.7556380524846247 4.7850067106692435 3.2032472623609913
Ar 3.8630015294508864 0.589776671414938 3.5880689466919797
Ar 1.9112808848669476 3.877372592877626 3.7364106998705884
Ar 4.6425376809799985 1.0774276654828165 2.2615387529496638
Ar 1.5822201479506819 1.1416523418775109 1.6986664592131202
Ar 3.834193165431455 3.9274906452927736 1.794405128376137
Ar 4.1670258540587675 3.122197455218179 0.8188600797325201
Ar 2.989071877339687 1.5735858154858169 3.36206600448041
Ar 0.1476073304269558 3.7416253665525483 1.027819147223738
Ar 4.699095585617836 1.209033629907388 3.3435012051505
Ar 5.009580187380683 0.10267470317686613 2.0073863673129297
Ar 4.834233616906696 3.118579955812385 1.940360904636196
Ar 2.4135598988659814 2.2834228960024023 2.8475115684201566
Ar 4.29844837106351 1.7842081721125858 1.4074413973356814
Ar 3.7084791487746647 2.4337490948261578 4.436902068707255
Ar 4.476945846319535 3.312623126889102 4.833723304144573
Ar 2.4209710501877373 2.354831973730009 1.8411367269388443
Ar 4.123189705892796 1.0149439162981482 0.4739837417168257
Ar 3.346188566886133 3.3850289528672355 4.961889205425488
Ar 4.326262621403672 4.1274501575096325 0.5499464931805467
Ar 0.2244350973181999 4.851288388224332 0.8086299165939353
Ar 4.207629250175278 4.976011529783057 2.6387110243298735
Ar 4.1832950033790555 3.258744142844095 3.8426156453390807
Ar 3.9451082476829304 2.7077115835315118 1.741414591781552
Ar 3.2063503638343622 2.861087137451865 0.9647214237354261
Ar 3.9084346246346757 4.145806757388052 3.227724211680871
Ar 5.035514784205659 3.1112419688952824 2.9488558326194503
Ar 4.091481293774195 4.967973946151546 1.1506350235325975
108
step=12000 time=60.0000 Lattice="5.038789 0 0 0 5.038789 0 0 0 5.038789" Properties=species:S:1:pos:R:3 pbc="T T T"
Ar 0.24089575972319235 0.5121379646998692 3.1614006046738976
Ar 0.11035817748354315 2.6856878432895477 0.8861285068352803
Ar 2.7566265986719514 4.841044931723671 4.7332019510334735
Ar 1.0325307419304788 4.255949603696498 3.6873689171802315
Ar 3.626966639047854 4.855274783228584 2.292443893141114
Ar 1.85095805453359 2.4938787285198063 3.6390063480250623
Ar 1.0742534767626415 3.151843143862857 3.293660618160712
Ar 4.9475832768284835 1.4388678693096588 0.3049066433048268
Ar 3.6887531576763646 0.7547471757278037 1.8989126540985635
Ar 0.6209502695575619 4.182845822682249 2.6241080561433243
Ar 2.3348314710512867 1.0392699608872944 0.2874458353763674
Ar 2.1389861285823444 0.5785988190625081 4.1386567101051055
Ar 0.3289096489466706 1.1583215582573114 4.375834063969481
Ar 0.8613117324990497 2.094275400509127 0.2940048721538614
Ar 0.39813799135112565 1.5668078014462279 1.2707326276043935
Ar 0.8631713076774584 2.3923047203217758 4.22022837696402
Ar 3.2615868076210615 1.9929094586780898 2.0940960664244277
Ar 4.461359311262525 4.120580621445691 2.0283181760001447
Ar 1.3163688713658863 2.0896494685743887 2.7653031486021984
Ar 0.14777892508650797 2.214689509876698 2.020533156029739
Ar 1.1103986122072416 0.20826268401874923 2.517248553578625
Ar 4.929669894428379 2.2528131995957352 4.655390286283376
Ar 1.1710450866685125 0.3313316833560884 3.6333776369479436
Ar 0.35801802678637 2.2296160730233052 3.159958725166697
Ar 0.14566196972965625 3.1154065644841773 4.0690338857405255
Ar 3.170587787256339 3.9262158554883437 4.277337070199755
Ar 0.523461382769512 3.0798860461963344 0.024414419995917105
Ar 1.302338699959227 4.923090026054227 1.4467137584960872
Ar 4.651910465304562 0.8941713505404381 1.2567802074736436
Ar 4.8143155208126345 3.9340846950048958 3.3396973526723523
Ar 1.419397219930034 2.995855420039924 0.4981300459612498
Ar 2.0252098929298574 3.1604225402154755 2.7596300595726175
Ar 1.0922115985392715 1.598564164697644 3.5939956141467535
Ar 4.231408812787551 4.349387630380962 4.276094355700586
Ar 1.8855729236756198 2.331655571934424 4.764857981331138
Ar 1.220316942443465 3.4050472398318785 4.354004153391068
Ar 1.0121504662729288 4.127954221973673 0.3128336628892766
Ar 3.0130313223575174 4.229767776562356 0.5611985489072612
Ar 0.8982169628841995 0.2684993000166434 4.7618776509538625
Ar 0.11687753483435896 4.940400891890831 4.202537331229766
Ar 2.5013093667339117 4.532876576735006 1.5355644705306586
Ar 0.6631561632200906 0.6606228600788389 1.6922433170638083
Ar 2.7670395094281135 4.100268524865335 2.495312061535674
Ar 3.8013452016354825 4.974328845541333 0.14905840433564338
Ar 2.9392955062199753 2.750712380873044 4.112527052756352
Ar 3.04026280342273 0.4782727644373795 3.333526149079991
Ar 1.4436934150212721 1.2932005244763911 4.758735120644989
Ar 2.1326672958290125 5.037562407701427 2.3729749640171596
Ar 1.0599057719234994 3.6766610521957617 1.4678536783779976
Ar 1.9115797715093934 3.9657574983465222 0.8049508780330682
Ar 2.0125591438272443 0.015077329374009126 0.42610829984467474
Ar 1.0616668000324636 2.393462620869475 1.3882350310507805
Ar 0.8830741776754302 0.7345477151035437 0.6413066197311247
Ar 2.6343405211364552 1.0939281944392736 2.196773154163707
Ar 0.7083075209588168 1.3005218813225217 2.528210563713633
Ar 3.605404871962684 2.634306283844229 3.155187772187611
Ar 1.6078428338091728 4.113990507551183 2.2723226665612537
Ar 4.317530836821896 1.921455777088644 2.671149266177564
Ar 2.0047719015221404 1.8453247576911567 0.9386006696568662
Ar 1.9204500097293642 0.7901521081019119 3.0775671211662186
Ar 0.4063629528809441 4.461947644500918 1.662214766981072
Ar 4.6394400211202536 0.41203466245567666 0.13467482147922782
Ar 2.117915995459354 3.5310175135421717 4.831664273996036
Ar 1.7154417209947015 4.513197127687557 4.419116657457064
Ar 0.9794695167765168 2.97765217489031 2.2642741466448566
Ar 2.513321521806092 1.4277045547772402 3.724785522764884
Ar 2.9882087393528125 3.4732440770997535 3.2468500865557317
Ar 2.0843969334374237 3.277390161349413 1.7365861667102318
Ar 3.922487068749506 3.6817900423981698 2.7893167141114956
Ar 0.24280831578190842 4.092629571026821 4.732307900861448
Ar 2.536289719576424 2.814883712517157 0.44016672403694634
Ar 3.0247339116465453 3.0325776552938972 2.273829133638761
Ar 3.2902635509171367 0.8282844587713031 4.585779078766228
Ar 3.1696219279703306 1.5358701325740556 1.063903081865074
Ar 4.26544156484698 1.355052210657566 4.590452310326701
Ar 2.958112523644715 1.7890277025879524 4.749317666600584
Ar 2.9619827608965323 0.4417967437055462 0.8715022965753502
Ar 4.423970841903276 2.3530992695854325 3.5992794435063864
Ar 3.8430285050109587 1.019405563753086 3.052563983191261
Ar 4.1280891954424845 2.2608403008523603 0.6542498796435681
Ar 2.2524715895170164 4.751793794871466 3.5071303267961005
Ar 4.119337599238167 0.44525337719627095 3.896766654265638
Ar 2.105665139464353 3.7426664451549216 3.6853730563762013
Ar 4.692924276112827 1.0726318744715932 2.3058304440450805
Ar 1.5389858164894992 1.3581251245465316 1.8259605156488377
Ar 3.4837383673614504 3.8827775829889806 1.790050475154506
Ar 4.139757905033532 3.4468831382162426 1.116400828834813
Ar 3.535558835332534 1.6933910186837613 3.82752234744461
Ar 0.1302542974635043 3.831598367488509 0.9100837614173022
Ar 4.750800961267005 1.3487940432400007 3.569170953816485
Ar 4.670077036396693 0.05233542118296351 1.9210011650443104
Ar 0.17433767058325292 3.304208091167904 1.803572165712522
Ar 2.3824018354791487 2.0274717115826246 2.8232803474580925
Ar 4.223593980765758 1.8485552822325193 1.6143231678930177
Ar 3.7712998830963085 2.401190938422468 4.678410255557595
Ar 4.488071261562691 3.0813268634465207 5.025538138564299
Ar 2.117325566292743 2.221225722406493 1.9008671014955416
Ar 3.978065606241758 1.2364965241811046 0.5371040146463805
Ar 3.5271082958459066 3.1797700066513426 0.34410253132748253
Ar 4.423884918670228 4.184235375163825 0.3143476411389816
Ar 0.253295047890198 4.997857418996035 0.8650726308835337
Ar 4.487685539204663 4.8211119112417204 3.0634473858686895
Ar 3.954358270970663 3.2838547396779916 4.05604164068007
Ar 4.0731470876771985 2.807236205987186 2.123079909713851
Ar 2.8742211033442326 2.6997747605721014 1.3981709210212836
Ar 3.4341099561314667 4.459392024248159 3.354466903505254
Ar 4.888089534272287 3.036359739396236 2.802775730294353
Ar 4.203516867242915 4.641248637076152 1.1122475465555868
108
step=12200 time=61.0000 Lattice="5.038789 0 0 0 5.038789 0 0 0 5.038789" Properties=species:S:1:pos:R:3 pbc="T T T"
Ar 0.12551799962719837 0.14876936341896743 2.734909727639602
Ar 4.744942977448787 2.5256497903866264 1.0310614633280697
Ar 2.6075898201122882 4.946315862705812 4.336171677743349
Ar 0.9037670381617805 4.398169114389066 3.5254601764425226
Ar 3.4801942677330535 4.512377331747925 2.3291908097873133
Ar 1.8322982352779562 2.876773523146705 3.9085854171726027
Ar 0.7813486987283067 3.3517185900719464 3.3338529409755715
Ar 0.3257433683427449 1.0085588147426843 0.39660968211953657
Ar 3.538565906269953 0.7911090281815695 1.7810162904746347
Ar 0.5765329650356744 4.105235078519703 2.5153602828991373
Ar 2.3259172263921113 1.1431092585023095 0.02673145877892122
Ar 1.8623442881295353 0.8329018607230021 4.14463014064739
Ar 0.15325517406003628 1.0882138038196143 4.365275880298328
Ar 0.751594131381246 1.9368023406994845 0.7239675179712279
Ar 0.9428951832779033 0.7702194338787188 1.4989906924392995
Ar 0.9634882718203892 2.5316654780903143 4.377022488236213
Ar 3.6776116326777335 1.7167897128971656 2.2318751252730364
Ar 4.171079791274056 3.635431221528187 2.3051569832251446
Ar 1.9240650991092576 2.1481181847718998 2.938001485128538
Ar 0.30729264123229727 2.2926034617923086 2.087139141622282
Ar 1.2250682636702845 0.24192286152888978 2.3835443334426567
Ar 0.05136234487609836 2.147868851719917 5.025103051892584
Ar 0.9247663466284594 0.437269024673101 3.456152721915226
Ar 0.5743561975219604 2.1878177805173897 3.264953008866194
Ar 0.012073066083570795 2.8927245218298308 3.928962948083203
Ar 3.194543710258154 4.058045426606288 4.237170471860224
Ar 0.6895835033894259 3.0472343955568753 0.20316234246355738
Ar 1.5179517237500184 4.949817598410015 1.205657665310445
Ar 4.616886458604029 0.39883120833016733 1.0656253020454847
Ar 4.864026738630012 3.9346274440516606 3.5948546414523994
Ar 0.8414506198782996 2.9554425758400376 1.2113080749289733
Ar 1.8444290917692623 3.3185488591589336 2.8993644060563497
Ar 1.2785914030826269 1.567529525560513 3.70470623101564
Ar 4.200926006827723 4.465400693327027 4.130304083812445
Ar 1.7020707634704046 2.8061068384721675 0.010558126690520826
Ar 1.285553389649288 3.596241392625798 4.340464219124838
Ar 1.2783353600312293 3.8917344344421347 0.31443036655622236
Ar 3.091466788879088 4.405306793788178 0.3117819086263265
Ar 0.9913754045639251 0.5290935533368422 4.64465693827478
Ar 0.003680627004336904 4.990062683161506 3.9092618890414084
Ar 2.7265524433544286 4.8701436546303665 1.5402651669880096
Ar 0.45413788875868644 4.973439835864872 1.746425173328245
Ar 2.526238416177214 4.207214239276072 2.73247832833905
Ar 3.6801448011721525 0.08763658203241438 4.968875714653381
Ar 2.5798951343463963 3.103784454214402 4.581083919885441
Ar 2.6563681547201994 0.737537125665881 3.4358205939077204
Ar 1.3288845797443583 1.5592200379225283 4.824949254419264
Ar 2.2461595620779318 0.33858134462570666 2.3476058521246457
Ar 0.8754677970745659 4.0814749304195175 1.4188345111785872
Ar 2.184344536230749 4.070647598105808 1.1147530572311695
Ar 2.2405899612272178 0.10588082751105157 0.42131088181571796
Ar 1.1322990224270082 1.8563167196058319 1.6452111171328454
Ar 1.4192938995576843 0.7833857622652171 0.5460406824966749
Ar 2.7417888082757735 1.2836501120752566 2.4870229825944423
Ar 0.6517373098056315 1.252052542191749 2.6373863010295726
Ar 4.077543911666335 2.702590036504425 3.3065352719475607
Ar 1.6615242708379256 4.20332122386921 2.1372640458248386
Ar 4.604072110490604 1.9586882369526877 2.7526464703864546
Ar 1.9761332978195316 2.0106221906478985 0.6171361818900687
Ar 1.6420328292070658 1.0513094556017581 2.860669528011664
Ar 4.782732123524102 4.296137203262139 1.322388498264282
Ar 4.787461162945667 0.21453741620900074 4.8847657102386135
Ar 2.227930992219707 3.9868702254455006 4.973446414770103
Ar 1.6219248012613896 4.733818089401201 4.41309312490934
Ar 1.0043268268465917 3.062183416190877 2.2653099350900017
Ar 2.2349375920847647 1.9655001992459384 4.295296000421607
Ar 2.9756417674447126 3.128722643581077 3.5421181894924394
Ar 1.877964785888339 3.0935818707185874 1.5385698018253897
Ar 3.6885141163757944 3.8548781478136975 3.298975552634965
Ar 0.628595900733793 4.534005760128465 4.631792645952304
Ar 2.510947606011946 3.17880547860806 0.6653038059487095
Ar 3.317622702524175 2.721657158992697 2.612768707132659
Ar 3.174331705983434 1.303701398583565 4.429184766598517
Ar 2.754351234931612 1.1638057301573652 0.9475902771792711
Ar 4.1889884096147645 1.0784550913756625 4.595425617582676
Ar 2.9095269049937134 2.2358052610380486 0.11984138141395445
Ar 3.267743487012023 0.3173601156217602 0.8337180996833357
Ar 4.753372992570439 1.9673266777866532 3.8940747408845775
Ar 3.6562011989462713 0.7150246251365845 2.949689330378254
Ar 4.085947110825283 2.164147375535783 0.10450443264165425
Ar 1.9781820923372013 4.949150054088883 3.3618657403159715
Ar 3.690462209900788 0.4956100944306504 3.975341512541149
Ar 2.1116538034034784 4.017506146869259 3.834036362690205
Ar 4.534574076507218 0.9426065144125425 2.3914528041319514
Ar 1.9391481736492293 1.1108409878365575 1.7624053142674911
Ar 3.28568122162893 3.6817751027156356 1.1563856753342496
Ar 4.214477131267703 3.4682817899559377 0.853219529294136
Ar 3.7869839999023163 1.6464705567658167 3.4339320040481214
Ar 0.18028543498054436 3.777028355508079 0.5064774861971005
Ar 4.5636566893372645 0.8916278561969497 3.496409222347884
Ar 4.438186573005023 4.967908339804085 2.0479052578251866
Ar 0.03858801735097118 3.431267257297263 1.718760591578336
Ar 2.8278940751383943 2.0263566135581756 3.4455796185013523
Ar 4.627217972373527 1.430250818680951 1.3693457014660322
Ar 3.467913962907802 2.451658397642808 4.227454966125759
Ar 4.595630740706213 3.1609958181758593 4.988141135216518
Ar 2.6731703387166816 2.0823658906808444 1.8971860857922334
Ar 3.754772349532042 1.1767507439450684 0.4687889108721803
Ar 3.469670526689325 3.232692530501749 0.09470002823378708
Ar 4.356861752640343 4.271503326737187 0.146452404305808
Ar 0.7280594640017886 4.94962477372871 0.5270135584148914
Ar 4.244737211647082 4.861918118882816 3.077743120791465
Ar 4.035096718861501 3.3491671094894806 4.1369613213544305
Ar 4.1963580971327055 2.6472059775691177 2.0575172329515703
Ar 3.356686561981564 2.145043756588071 1.0147099709600234
Ar 3.0529062530235116 4.875817871763969 3.3205159468531598
Ar 5.010224670263121 2.9656173349588313 2.8144565414642457
Ar 3.857899628562088 4.629139501708863 1.0966207782014028
108
step=12400 time=62.0000 Lattice="5.038789 0 0 0 5.038789 0 0 0 5.038789" Properties=species:S:1:pos:R:3 pbc="T T T"
Ar 0.20455766016683238 0.1700164984472819 3.0063398409461493
Ar 4.901522929973616 2.6618017178187268 0.9854200577714859
Ar 2.967314864946655 0.3021715182785467 4.460270727611113
Ar 0.9379747534166752 4.411858210053117 3.41546440948468
Ar 3.528542733191107 4.471270190585989 2.392414061565245
Ar 1.7474177395420114 2.577445671402321 3.565605904071052
Ar 0.9205450423563161 3.254207320220323 3.360636586593636
Ar 0.1658831178066348 0.9724586931306348 0.23059616152385443
Ar 3.3574042806941518 0.5083651407471466 1.4506012176359395
Ar 0.31059208432880214 4.148311098949064 2.613717763965513
Ar 2.523315490176531 1.143015122943714 0.000250302627402184
Ar 1.947174241338825 0.6908370215877097 4.343074800194284
Ar 0.4471050600256869 1.6724733789013004 4.138909314993594
Ar 0.7119763561001433 1.8724137406031107 0.8762305446356006
Ar 0.6603246488364857 1.0117930288399215 1.4238374836928473
Ar 0.8175335906812224 2.606046662341713 4.249785962449994
Ar 3.737420588472369 1.5452982836001645 1.9057780839941472
Ar 4.2109913261112 3.509841555536955 2.298509367055748
Ar 1.5964505779944111 1.7043376667300207 2.6409215446056002
Ar 0.30287011233871913 2.1046672778772955 1.8665341681178735
Ar 1.3725727073724583 0.03491367396776059 2.7298276204553016
Ar 0.14588107480719945 2.0339991810693494 0.04443064971138647
Ar 0.9408324204385679 0.4316398500786309 3.7208686367253088
Ar 0.30080425204477834 2.1312673786420895 3.2246317742125052
Ar 0.1681415991547187 3.4267826246968616 4.166564333405658
Ar 3.2013711105622877 4.024066161057708 4.625132148323407
Ar 0.8619634953654218 2.713550910569883 0.3049671510712119
Ar 1.5240757605666144 0.1349631554204912 1.6332726421771473
Ar 4.868080707830184 0.5002650674957122 1.1390452756258538
Ar 4.989644641395756 4.239511577177607 3.6622617469374323
Ar 0.8349767945394839 2.8942964507561237 1.3118184807028006
Ar 2.0653983886971554 2.9779029011007427 2.669861259645291
Ar 1.428325583365549 1.5447066441086392 3.6522242019596662
Ar 3.96454244307791 4.8484762576193985 4.312920845822847
Ar 1.867346263555387 2.734002964844667 4.761732069266903
Ar 1.3397254655240434 3.641332774715058 4.39753455441084
Ar 1.224204262048511 3.6952301397817693 0.6302344696796187
Ar 3.002191455517408 4.112680670281067 0.6603206985790869
Ar 0.9401707152867952 0.31897282245246067 4.807373910355575
Ar 4.986719365691184 0.2266819007390578 4.194167040478244
Ar 2.6574644759925636 4.632831469405977 1.5134521309670852
Ar 0.4648765920746142 0.00934298463105717 1.8492039412509318
Ar 2.603310016429459 4.177251117686539 2.8801540582489187
Ar 3.682677764469055 4.826144255645341 0.3009197413812742
Ar 2.4469178305635655 3.3396330725589265 4.301489418885585
Ar 2.9487310434953087 1.026565202707218 3.3014927213277065
Ar 1.2947335340161357 1.7207862050977272 4.8446145611136995
Ar 2.7538311733743996 0.21642468182775942 2.361712295762648
Ar 0.7727597587324281 4.0043943955965124 1.5558721037857508
Ar 1.8012434507989985 4.106963701375514 1.541850847389064
Ar 1.5385585142831624 4.828406186874454 0.49679799319122575
Ar 1.3528990603723814 2.077541583422719 1.6412584661000156
Ar 1.3073919383474322 0.9320588982829403 0.5084084996800121
Ar 2.7705748288486594 1.3424276005576217 2.311363613023979
Ar 0.8029327859026663 1.0119403062753014 2.5622079187493254
Ar 3.96438627959919 2.852657087562847 3.1951282543574395
Ar 1.4476631339085135 3.951671898753846 2.6222553810224962
Ar 4.572052048034788 2.4212489884025348 2.445310550183389
Ar 2.014384058330214 1.9933011039924557 0.7550492915873689
Ar 1.9807577820641182 0.7434925469686593 2.8558240737093077
Ar 4.772971350099635 4.2432449524859255 1.4886712362523253
Ar 4.7233434325506645 0.002824457599904166 0.21339054239361802
Ar 2.0870446247442103 3.961991138683763 0.10353540957507518
Ar 1.7236440479120176 4.6369335305311 4.393621565258644
Ar 0.8710852049877938 2.6793443035330413 2.473691900997181
Ar 2.2949954618395894 1.8711450917026313 4.23491537036414
Ar 2.9515778586538177 3.1696052975015716 3.4139067336753044
Ar 1.8769421205171106 3.069047007095823 1.2600021947378994
Ar 3.766552677383064 3.857098308722424 3.2455362611736573
Ar 0.5493230596633605 4.303435851584821 4.638702337506636
Ar 2.662987499143484 3.11122162660785 0.4757001393424424
Ar 3.090288620224234 2.4950831362841788 2.3975948655850017
Ar 3.5148443425039777 1.2388852080464634 4.49721532187173
Ar 3.0872411513708338 1.522257429891732 1.131632380246999
Ar 4.558289806843136 1.1922428823800297 4.4901880438195265
Ar 3.0465668934608634 2.063595391000386 4.971982622319743
Ar 2.3874278138879985 0.6374802065074736 0.9504988434573662
Ar 4.563744683328002 2.481922783193712 3.9250953895143086
Ar 3.780092600509232 0.7054806848336106 2.5938154162889555
Ar 4.147153436287974 2.1366725117660255 4.761589815417801
Ar 2.1228677037862185 4.9085459959169375 3.4303411905545933
Ar 3.904637701534607 0.7769271134775669 3.767614572019563
Ar 1.9219733979615197 3.8045377092119144 3.544406957070299
Ar 4.771999141386174 1.099111506360823 2.1945833847069047
Ar 1.9541870935079289 1.2545881559152974 1.5647176421631805
Ar 2.7791590765372742 3.6363857177305237 1.987327521178049
Ar 4.075293886353261 3.6522656078262057 0.7507662739117875
Ar 3.7146968413841357 1.9033971182950165 3.06143545733213
Ar 0.10264442973833332 3.638005497264376 0.544829043600717
Ar 4.713148020368821 1.1241088737515872 3.313771506272877
Ar 4.477936057496498 0.11095690842625885 2.054036338823778
Ar 0.07307979302547754 3.1325553303839437 1.9842535720099213
Ar 2.514448388366336 2.0597761696432224 3.2050120593466307
Ar 4.789576766358864 1.5857148225956892 1.2337950991002746
Ar 3.3610341436401994 2.2830455372243006 4.007207634041275
Ar 4.587452915938063 3.0054693277703426 0.006016723574303134
Ar 2.318467047186403 2.2118276883091914 1.7920204542095999
Ar 3.8650981383835807 1.2827879353669762 0.5320916105876609
Ar 3.441229290369385 3.014564534595713 4.745879385361828
Ar 4.575950159235274 4.098271195019988 4.7342688235998835
Ar 0.45330854671703613 4.627608502678438 0.6943283498434136
Ar 4.212216648355361 4.909738764013099 3.1233133908338173
Ar 4.1484345769943385 3.4022246454286686 4.074885535961371
Ar 3.972569774530568 2.60906453067524 1.6927913909474406
Ar 3.831001855416597 2.4698672285483596 0.6931292100468187
Ar 3.1755422765364 4.985584280880774 3.502275015139917
Ar 4.922209293625153 3.2697815224238727 3.162732129832973
Ar 3.656271578344086 4.60061421733538 1.317012667298447
108
step=12600 time=63.0000 Lattice="5.038789 0 0 0 5.038789 0 0 0 5.038789" Properties=species:S:1:pos:R:3 pbc="T T T"
Ar 5.0016153462081085 0.46301105344519633 3.043312504591756
Ar 0.11588288818872479 2.676102037322548 1.245797780049716
Ar 3.0715303308933737 0.3893805156717033 4.2682752774461905
Ar 1.029743500991924 4.628996633723987 3.9590330218171315
Ar 3.542962719254952 4.499040236282983 2.060195413652884
Ar 1.5555120981851769 2.843219098030685 3.5529140311465746
Ar 0.6256714843713345 3.913702745976202 3.4091481132746306
Ar 0.4086875274900618 0.8831228813025424 0.27218341277704206
Ar 3.7236382150524787 0.5888727259942514 1.2829225601820045
Ar 0.11085498486237026 4.260869316849403 2.3669705012602678
Ar 2.462804400411506 1.2239674620439494 4.939571927772952
Ar 1.7596474546906866 1.0255235269433034 3.9652874292887814
Ar 0.5646948336519947 1.2673084583999472 4.307238468906358
Ar 0.7742147327954222 1.8900211672239293 0.841240074014501
Ar 1.016386977501657 0.8891124164226213 1.4318798758496827
Ar 1.0237341072751847 2.418939317784025 4.3508388349391245
Ar 3.902099574735835 1.5661932945601897 1.948541710132682
Ar 3.823638515812114 3.0942741896079147 2.6347402390472046
Ar 2.050159917099243 2.0673914007646754 2.697919473154499
Ar 0.40925781583802306 1.9969199012598158 1.983440133488722
Ar 1.3242325826103822 4.930661753022694 2.793843550312867
Ar 5.005280859714451 1.842382644303763 0.04848969693792367
Ar 0.9488605485605273 0.6483717569518989 3.455380384741939
Ar 0.4813071995317396 2.519347147373875 3.4226764567172157
Ar 5.034629793993023 3.3576560111446043 4.363913485577129
Ar 2.7681304058490337 4.349581605082819 3.9545820382230508
Ar 0.6254891888378785 2.9230264295383934 0.2591627025546912
Ar 1.5660932926285531 4.893927459622967 1.6692702497406766
Ar 4.746379830308341 0.520263438070718 1.0414751350512617
Ar 4.816762059127915 4.24745266432076 3.932735448627326
Ar 1.0253771628808979 3.1105005926229534 1.6517732140159653
Ar 2.1078267594409783 3.0316706597547833 2.080659841109363
Ar 1.2708175342629775 1.7733053202075488 3.301105151785042
Ar 3.8901527614250075 4.904522626852729 4.0666644730950345
Ar 2.134358506522982 2.852110244853981 4.86493127650379
Ar 1.144909709017826 3.6355774550054476 4.434914949995368
Ar 1.1726203001497546 4.139255537993747 0.5600666823068939
Ar 2.8672785871259467 4.063290981084458 0.7890142301365403
Ar 1.1239529468574605 0.3445019438439875 4.828544380242841
Ar 0.0641323121614508 0.26302153956964525 4.398737778950157
Ar 2.6520698120851995 4.843962015782253 1.547561898833921
Ar 0.5508679843033105 0.06482561267008041 2.0066390602387223
Ar 2.5552171896254134 4.163215229988521 2.3054242263024785
Ar 3.0902170427264717 4.550987775307303 4.9846676918522155
Ar 2.1343630713738064 3.576200730793369 4.151418274483292
Ar 2.985696322561656 0.8093019525738042 3.299816906870607
Ar 1.4351530326525832 1.549407595713001 4.991247837261588
Ar 2.568120959201582 0.24490468794247672 2.6006050226028448
Ar 0.8532312719948174 4.163834233245488 1.6093339499132857
Ar 1.8806863398745155 3.921417738530858 1.4273333408282574
Ar 2.0111758570752425 4.771757960434336 0.7187164610098609
Ar 1.554307444109342 2.0119398707708958 1.5946715318564553
Ar 1.7116480568806922 0.6884496303638773 0.6202482418195989
Ar 2.9031247443240864 1.3071846791024326 2.363321215293944
Ar 1.1330870958980126 1.1287521531724127 2.4149755123724823
Ar 3.8778165677662915 2.5331887908454878 3.564054769483802
Ar 1.2687316567936326 3.743597997069254 2.4599477770213443
Ar 4.628641294936538 2.3467748399610935 2.728421733427172
Ar 2.094258096032375 1.8737005110913778 0.6988441393926443
Ar 1.8704371667033193 0.923381408852691 3.0355096059444633
Ar 4.239751395201486 3.6531247770326405 1.7910171935043477
Ar 4.131520015793043 0.2591568821482518 0.17452510453228598
Ar 2.0365718769960734 3.839912125997235 0.131631771018561
Ar 2.1893780894049324 0.0561187787948139 4.707932526018334
Ar 1.0105215229025526 2.5937415304885576 2.559657705940058
Ar 2.1110807236210265 2.0347691391913623 4.171681556680076
Ar 2.4933561849798487 3.159397603887113 3.2252534786338303
Ar 1.584357484567384 2.8296520955337456 0.7947048394946452
Ar 3.713241737296323 3.8158586342576695 3.5266415551403836
Ar 0.47177773977129334 4.341481237444482 4.8312143269142105
Ar 2.6450574386518015 2.918316623528883 0.6687902524076418
Ar 3.1590863805319285 2.3110956877614894 2.5839345847035715
Ar 3.5501025077693606 1.477093474645893 4.188898034155283
Ar 2.799866818945639 1.2336783920160956 1.1617453161753768
Ar 4.493383215387155 1.0688897354526004 4.641074588290698
Ar 3.0094358445597194 2.1844794984688782 0.003959385155128645
Ar 2.9347357985090867 0.24252837172816588 0.6432833638455675
Ar 4.703394586704469 1.7919275428673178 3.8506083447795607
Ar 3.65284901525632 0.5025056939793283 2.4068587865908397
Ar 3.998197208591001 2.352520779037385 4.7061230767777
Ar 2.185645905959562 0.1205702592126548 3.6357310361193744
Ar 4.054025359745397 0.7299342745977517 3.5153735714854757
Ar 1.8717752732214425 4.036126419847853 3.2237214937279686
Ar 4.686325198997337 0.9354298310225135 2.051075535326245
Ar 2.0176857149432235 0.9104746219757875 1.7750251615940262
Ar 3.15463720156411 3.2051754327464774 1.8425157396243002
Ar 3.8267024831928484 3.5601328257141143 0.794014428964306
Ar 3.7920958406137535 1.626931108572338 3.1262597106714574
Ar 0.05953112406180362 3.6889053157579568 1.048634848693657
Ar 0.2955954076614445 1.5853038277745033 2.906172242713266
Ar 4.58946791825988 4.96778722677069 1.8348819078771708
Ar 0.07482613834313079 3.118489277209977 2.288452378048593
Ar 2.762179058810348 1.9121379954624114 3.366761377193885
Ar 4.672202880876304 1.7106305608382664 1.0689334771819194
Ar 2.941857739281213 2.750684471802536 4.096935377656539
Ar 4.455195536680176 2.7148409152996833 0.398869156877031
Ar 2.6618224236341317 2.0955263411282816 1.7003008300251252
Ar 3.6206579392142713 1.1904466537500906 0.2993368570745488
Ar 3.022664024635324 3.528792743168578 4.845629281855535
Ar 4.259398747468783 4.209538455651496 4.8410509478655435
Ar 0.7482138516002346 0.0502438949028417 0.89317273808597
Ar 4.367229808038236 4.649737345698969 2.882883103295657
Ar 3.95604135018213 3.248227686377044 4.381289429297845
Ar 4.22899575427073 2.5717940329378024 1.7308472570832134
Ar 3.4989598128152735 2.3538174824675 0.9748393130125873
Ar 3.4277871718435144 4.786809310347761 3.175225457017427
Ar 4.721185806129544 3.47980096233785 3.2203070673482213
Ar 4.364031173245578 4.498074947139948 0.8434449554126354
108
step=12800 time=64.0000 Lattice="5.038789 0 0 0 5.038789 0 0 0 5.038789" Properties=species:S:1:pos:R:3 pbc="T T T"
Ar 4.776399072671029 0.17975946959379754 2.9484254043596065
Ar 0.07788008243521127 2.768933119492987 1.47766391771852
Ar 3.6994912188151443 0.3411814578281346 4.888119097145407
Ar 1.6190184685565934 4.33673297206139 4.327664341491015
Ar 3.7747325155422407 4.940945549411018 2.013542407104832
Ar 1.5985513042138007 2.8478221935961097 3.0967545926071716
Ar 0.9416748548868233 3.5515737814454185 3.7486813728541284
Ar 0.4988369625562337 0.8963895863525347 5.022615043933123
Ar 3.841787878384094 0.7367391498435104 0.9574762228882424
Ar 0.17760979822099324 4.289100184769634 3.3408852540690894
Ar 2.5902207622324678 1.3118447994646587 4.62342136389571
Ar 1.5201350034506595 0.7561606955898712 3.9086807491551556
Ar 0.4988599717285969 1.2377886360341415 3.939705926075826
Ar 0.7718170288430334 2.158941231368943 0.36642628093413376
Ar 0.9652638719838493 1.399758938184898 1.0816010905826554
Ar 1.1165541854131604 2.544637575205053 4.2504169816974215
Ar 3.783847579494108 1.6417930772382638 1.822029312525617
Ar 3.627301240560782 3.0750815295924108 2.6359702452654674
Ar 2.006904544168746 2.039600638156883 2.4001695412739132
Ar 4.918993815420846 1.735046915518402 1.8311444350014887
Ar 1.1721724277539118 4.81303586227192 3.1605095714381397
Ar 0.09263900964118109 1.9570406488869359 4.575584356456688
Ar 0.6984467647254319 0.6375577462457801 3.024308751169701
Ar 0.5800055075264748 2.1692080877516804 3.516766686072641
Ar 0.0817874894891891 2.984775880692213 4.256435596284417
Ar 2.9006794388059314 4.34887862207095 4.069848497256772
Ar 0.27120720789627145 3.174811829332955 0.2953873686003547
Ar 1.5883387148576156 0.24356311936681024 1.699063440204527
Ar 4.8112103076520105 0.09679138316136315 1.1308714660435788
Ar 0.1464881365256771 4.035002933783852 4.392372419721264
Ar 1.0106399547754372 3.3792988012014322 1.6590616019383178
Ar 2.0295316157634975 3.093971528856296 2.2403820169345936
Ar 1.3797835112180874 1.5238160619332792 3.134653996568184
Ar 4.255586288606208 4.480417709559103 3.909413993828929
Ar 1.8453691869135644 2.7347295988768185 4.9367878729486225
Ar 1.1326819059964857 3.6080073597188123 4.92545508524743
Ar 1.1963649042553974 4.110473332712674 0.8413289428845292
Ar 2.7855031029721586 4.285865247064929 1.6044164322694294
Ar 1.3282605976504585 0.23133324238075145 4.930428690320224
Ar 0.6461220184473144 0.12546108350668964 3.983586149789961
Ar 2.628783160480938 0.36669914428154643 1.511180634423677
Ar 0.5976785293189719 0.5290781433948334 1.8987981697942569
Ar 2.7950539317035523 3.852695581760821 2.621832264912551
Ar 3.4732589720384306 4.129705750211661 0.08756524047668633
Ar 1.9735702040784253 3.2727776626628473 4.075492053265628
Ar 3.2164622846067816 0.484601813960668 3.7075381061210333
Ar 1.3928554927144285 1.5106257214469732 4.7346659797626645
Ar 2.3843741077004963 4.910133931078425 2.3704527449335155
Ar 0.8404562166799417 4.5081655859603975 2.0547513714770083
Ar 1.8024357632511545 4.18627828430592 1.7917868244403616
Ar 2.001623766454547 4.929506494007463 0.7460485987423441
Ar 1.2504328310778352 2.4017383738714337 1.4641017887243197
Ar 1.8579053466227329 0.9994572807927788 0.5678789666281222
Ar 2.862360077882123 1.2397040262321477 2.249485445260642
Ar 1.0235833450917673 1.568209380564554 2.1413517331298304
Ar 3.8252540493151814 2.5608215991966157 3.544312679343546
Ar 1.1271316228737847 3.631321215401269 2.673132148270299
Ar 4.601424542694628 2.2981235258974118 2.8494076224533913
Ar 1.7872175008062205 2.0416518070382614 0.6448263490076529
Ar 1.8322162325017861 0.6973793041544931 2.6835508516143523
Ar 4.182283777488115 3.850021641726504 1.565548652304115
Ar 4.627495797429195 4.9592277157300435 4.747773254343288
Ar 2.2089140230641227 4.191290315935841 0.04135340980332802
Ar 2.5503972856776866 0.16734506649816028 4.62978205767263
Ar 0.6559520207028672 2.5522401085031023 2.518351616552939
Ar 1.959728810090655 2.139470336403903 3.807017710970118
Ar 2.7831269592601307 2.6056291560882636 3.2152665704576995
Ar 1.6268576670639898 3.1228689469718693 0.8443316966547127
Ar 3.296922757572136 3.588446758480891 3.462303057966765
Ar 0.5016932252769828 4.477719474166281 0.1702154091843258
Ar 2.764958531855134 3.613906435671965 0.6639510603978296
Ar 2.9324358865956417 2.4039094766969997 2.1746628757966877
Ar 3.646246965378249 1.4561390363771627 4.327788602786964
Ar 2.9266962379781125 1.4061451522034363 1.0539257688708679
Ar 4.505270640605572 1.0025647555298263 4.8362943620136285
Ar 2.84032960459596 2.5699493949650045 0.3658172883704097
Ar 2.980589811363831 0.15140547585635503 0.6027696891189228
Ar 4.531371924870893 1.7737085683162366 3.821150809284204
Ar 3.789747812576174 0.7467819856358804 2.85041771396375
Ar 3.8502990559595007 2.597822657102271 4.922656955754433
Ar 2.214679394694672 0.03471466617888905 3.416254277539164
Ar 4.317930114941925 0.5944434367259726 3.8040821679303147
Ar 1.8474444698833754 4.015493405215682 3.2616775883510924
Ar 4.476122932469317 0.7522677607597975 1.9298712595060892
Ar 1.9348082629630845 1.3516925818536285 1.5417441614222627
Ar 3.184786406992545 3.2025803832941855 1.5234750183466692
Ar 3.8870020822855134 3.311779522876791 0.6552842657707824
Ar 3.5656072522897047 1.8882295524060948 2.87463448128767
Ar 0.17777714786251467 4.075341273967374 1.2298974100013207
Ar 4.76246877533906 1.2114722440666144 2.817405911825136
Ar 4.794479041746057 4.563813559779692 2.142259186293771
Ar 4.91045555221057 3.455591864756702 2.3421903794528847
Ar 2.5428448195886864 1.2438608585537143 3.2287241985283335
Ar 4.903662370490791 1.075472163250912 0.8525823935726833
Ar 2.851415457583732 2.472392447773231 4.28718107715606
Ar 4.682408015368272 2.1171891721518015 0.5510699408946029
Ar 2.380949605799355 2.5703212652840928 1.3381775388030064
Ar 3.7043113981803466 1.5382860243782992 0.27901735260775484
Ar 2.929229718218883 3.3963627758044375 4.7191861341892904
Ar 4.583845007547033 4.037510040467244 0.3313014639786298
Ar 0.7883061128692224 0.33634652435137363 0.9152430255475643
Ar 4.052178109798771 4.165963002809616 2.625329561330047
Ar 4.150464831675432 3.4771873800505206 4.386870719962909
Ar 4.058729205006057 2.625778940412778 1.8777971324511786
Ar 3.5830267641689875 2.3546217137057877 0.9493937769235015
Ar 3.312950308043902 4.771594302984152 2.9106405752532325
Ar 4.561496542501819 3.477343743746856 3.3785282135064914
Ar 3.7411082790973933 4.619005157008157 0.9559577140755826
108
step=13000 time=65.0000 Lattice="5.038789 0 0 0 5.038789 0 0 0 5.038789" Properties=species:S:1:pos:R:3 pbc="T T T"
Ar 4.756364871287371 0.02175664287431984 3.1423949114367917
Ar 0.17499775521744146 2.8774604494065787 1.0965195809552966
Ar 3.553584881586039 0.5641910087640978 4.749372796438966
Ar 1.7496756199450865 4.411836946544722 4.0230018225344235
Ar 3.6209498652062475 0.29135020349970514 1.5206744380935728
Ar 1.5218922976994267 2.6628191537873445 3.2968730951758674
Ar 0.8891646873414306 3.778625925780789 3.82368233303177
Ar 0.5724415384540046 0.8000610776948083 4.796878102042639
Ar 4.105564517987983 1.2899604220312457 1.0801192794978882
Ar 0.17401350655489836 4.139354707956272 3.122121062005697
Ar 2.6292307215178896 1.3231583827239293 4.681689134059782
Ar 1.068178447053403 0.4779403505815454 3.8829209743487922
Ar 0.31493246844377243 1.170590322075359 3.785000183341799
Ar 1.0504292748599426 1.8920078127499738 0.42101167893593083
Ar 1.4078954956290202 1.136882820494133 1.319221499759113
Ar 1.1764526687908787 2.7524898648468015 4.623555805430878
Ar 3.956648360396809 1.572971977647098 2.1020197304396024
Ar 3.514063721674977 2.9991135471735433 2.3999796208335287
Ar 2.1699628767274803 1.8139418394037787 2.9269936164054067
Ar 0.01016883315036603 1.6991717478828559 1.7113325179088748
Ar 1.1633948159580725 4.722357044445821 3.1973906423280503
Ar 0.35321305787316454 1.8530694492445055 4.722984380434744
Ar 0.8557464238423673 0.5292590886162267 2.628724830206453
Ar 0.5041878876074444 2.274715935507867 3.6882534756739003
Ar 4.473971663658721 2.7734059895434857 4.151787502546222
Ar 2.811348362004482 4.379692079861975 4.011160091648348
Ar 0.13538808089579057 3.041788782808256 4.957950705589196
Ar 1.3074742550272114 0.16853694481098636 1.7903750300651906
Ar 4.734360991212178 0.08287458508441042 1.271288309986804
Ar 4.637307816762549 3.851361469682726 3.979707226149843
Ar 0.9635539527998338 3.3694513944372355 1.6512477374753378
Ar 2.315263578052221 3.0557423627317086 2.4670502743657
Ar 1.3861030579971139 1.4650991647368803 3.523649106578074
Ar 3.8739400204365895 4.5182322334280265 3.5420456529055953
Ar 2.014351880854741 2.898373703887001 0.12785605147358928
Ar 1.5581950257175592 3.7022799896872685 4.7987408422985585
Ar 1.040608903758421 4.260938184573704 0.9320475606785593
Ar 2.8978713172868926 4.3553155082739625 1.2529985274625053
Ar 1.4597777112767771 0.0017945689275104507 5.0323956811209
Ar 0.5527693610732788 4.672411607338035 4.255824052049153
Ar 2.3283357299920695 0.7237734553032572 1.5393486303976278
Ar 0.4642773866844176 0.684345744225406 1.684267712836918
Ar 3.2134394738246246 4.100858891641447 2.226962834375252
Ar 3.5764140435332994 4.444535797088788 4.83982119941558
Ar 2.294148146513869 3.3647893279604593 3.9238742229925103
Ar 3.1854538884956973 0.30283810406808265 3.701983623882917
Ar 1.6959499151014166 1.1021660582508965 4.456011775768217
Ar 2.3584042835296053 4.874260584003705 2.149820794743799
Ar 0.729656626314126 4.397821167331168 2.021911925017845
Ar 2.0055135875412455 3.885341961507061 1.8639878747630871
Ar 1.9886088630701793 4.960057059067112 0.9880728782178034
Ar 1.067505527392944 2.2886616286492503 1.560726513710634
Ar 2.0570298659648776 0.8316603158286865 0.4413066914437094
Ar 2.97790411007889 0.8184572758248094 2.499160469197393
Ar 1.2092434001554924 1.7806635167359848 2.4913037668197497
Ar 3.809979762666833 2.8352998476846385 3.384687074244715
Ar 1.2010430812075996 3.7476503304685482 2.68999071960992
Ar 4.393520265280487 2.2662010955941754 2.8237524737553654
Ar 2.133059655153274 1.8894981816662952 0.8571966059624085
Ar 1.9121289380922315 0.8379451236662689 2.6057006854156404
Ar 4.162426460094071 3.6484284849996915 1.6099677620394113
Ar 4.6012713979162605 5.009716421596783 4.8937079388315015
Ar 2.471087606790917 4.521303140244259 4.982516140245724
Ar 2.5659580212332207 0.34537474460266837 4.507481718002035
Ar 0.39063026008348123 2.3435749550099527 2.58213725811688
Ar 1.9410406181055544 2.142695934136846 4.148467058669637
Ar 2.819157136699454 2.516285740171571 3.462799651500248
Ar 1.0524573033047513 3.1846576790067265 0.5274036120364411
Ar 3.097537351946844 3.845564247661929 3.2754958409687367
Ar 0.23738864806864096 4.212627416433355 0.22170258751339308
Ar 2.039350151344541 3.7959264160010604 0.6274826041932153
Ar 3.004216787815564 2.2095925575727957 1.9039590556915007
Ar 3.530670566620284 1.5160702702926256 4.23973574146359
Ar 2.9916162548372562 1.2902202851111375 1.1033951331863214
Ar 4.51309715405562 1.1952492085942241 4.989757052670796
Ar 2.9156176639268487 2.6971421381134166 0.6036941138497406
Ar 3.0256150176178034 0.252796269822701 0.6474196217843251
Ar 4.527927537457387 1.7453884861537594 3.852439627033119
Ar 4.087867733839571 1.0116389463069348 3.268461464262192
Ar 3.910990670254248 2.7729397532695153 0.1483385201237688
Ar 2.059986140883669 0.2922983747693787 3.4928346395932923
Ar 4.597215593666862 0.4967302169859462 4.102152750261528
Ar 2.1687134380269915 4.079136486341435 3.0372905624978483
Ar 4.382428915486331 0.5733469602853473 2.112885850411414
Ar 2.0894645236665346 1.7243936001221147 1.8727547411944867
Ar 3.0089161924583094 3.195229404870751 1.5535350953557308
Ar 3.3653947243550495 3.6293828938243893 0.6499749282438703
Ar 3.3517181129125997 1.7992996132666503 2.9052257434039594
Ar 0.03418669071906605 3.9575483055831033 1.2836549050605464
Ar 0.011935487305071454 1.1608577867125462 2.662850108168498
Ar 4.580873045764519 4.460372174032743 2.131968619837523
Ar 0.015303630573627611 3.4326616260905682 2.290495818738893
Ar 2.621624385800371 1.3079445185746548 3.647629584348969
Ar 0.2895774628467423 1.267746830620859 0.7046907714303282
Ar 2.933704653022928 2.56034288343428 4.444395015413467
Ar 4.698866946666628 2.0852665167101105 0.4743832045904102
Ar 2.0288036285616498 2.8128618416055238 1.3591559411999066
Ar 3.480105915014419 1.8181091757632326 0.2738878270596969
Ar 2.7529060881724243 3.525243273079258 4.858762839090871
Ar 4.382197015436215 3.7151445875322637 4.9829863595167545
Ar 0.7960664003169925 0.21588986208883665 0.7547894414670242
Ar 4.148277824870244 3.688234457695227 2.776740029360998
Ar 3.584437554128909 3.6680848580025733 4.189803682708403
Ar 4.434921961855617 2.7320056016809757 1.811840934583796
Ar 3.710047250561848 2.296572777148758 1.1874684219836502
Ar 3.5791483463614924 5.012256941897948 2.6728200734808363
Ar 0.037091058322661796 3.089557483467295 3.3195853647345963
Ar 3.891322827540739 4.4128715244169525 0.8212946342050796
108
step=13200 time=66.0000 Lattice="5.038789 0 0 0 5.038789 0 0 0 5.038789" Properties=species:S:1:pos:R:3 pbc="T T T"
Ar 0.1582966683758583 0.2145464605465404 2.707258059663678
Ar 4.930729860635587 2.9813731640294296 1.4273150155246344
Ar 3.6536684870876 0.6659729786761994 4.4338518696931
Ar 1.4757183725033378 4.268295759029972 3.695978116579719
Ar 3.513896761324756 0.4918447590448451 1.4173948194009676
Ar 1.7007444134081622 2.667150360843805 3.3394839666858323
Ar 0.776841414104254 3.544990126492749 4.306228094947113
Ar 0.6573359945114012 0.49244501772172516 4.738157164169149
Ar 4.203791803039047 1.0673131894862817 0.9880164336102302
Ar 0.08040165264412522 4.063876627306847 3.2731291431119933
Ar 2.82543901589868 1.4051528029087226 4.721270914361687
Ar 1.4221708119664596 0.33016997326385833 3.7561501310664887
Ar 0.5357956023363815 1.130073896709876 3.7212764508664806
Ar 0.9837091299159609 2.0324964719788574 0.3857275595477409
Ar 1.3904350159207157 0.8955513041286198 1.117088278048836
Ar 1.066726845153304 2.4885163007417845 4.283238284534054
Ar 3.714444415872765 1.6985533016968377 1.7965625372669725
Ar 3.056573642370002 3.1447602294074337 2.691266873895591
Ar 2.3375868379821365 2.1032671369440163 2.4395539399673543
Ar 4.7669016399313175 1.9353489247468285 1.604994279520525
Ar 1.14662343406563 4.655799496707482 2.8696366992666706
Ar 0.26772883751001214 1.4950464862822412 4.828218183784361
Ar 1.045461221692541 0.8742724569985145 2.8822458789640346
Ar 0.5367657089197775 2.6142806027431997 3.3414453090400418
Ar 0.021818579428968976 2.239478547430478 4.139487778990706
Ar 2.6902423713121055 4.369852173865843 3.88664051126296
Ar 0.2877780953127771 2.7889414182924503 0.04881533144538774
Ar 1.2795989104777896 0.21650834365420513 2.067672558343034
Ar 4.949850223849404 0.27033098412839596 1.322390037343539
Ar 4.679854571738095 3.5339083596192795 4.2872285027444015
Ar 0.8467854839917713 3.428280436434605 2.0406936395132127
Ar 1.8260061680710824 3.1800659714882364 2.4228115781916766
Ar 1.5413872721058954 1.5656711717122052 3.646049963705177
Ar 4.108475127343927 4.519739405290462 3.915670084022696
Ar 1.9647661065922046 2.5049074905047948 0.006937421405326476
Ar 1.6137467044926679 3.560536006024784 0.1405776504985835
Ar 1.139848917834595 3.931526693143832 1.0597811713948913
Ar 3.1410742466534223 4.516187059103593 1.2279345508512511
Ar 1.231337467598237 4.500520509097533 4.796338183272
Ar 0.4333343016377857 4.854350955725015 4.0189240248107945
Ar 2.468475135810033 0.7673872821831244 1.3297020958305152
Ar 0.446447760191359 1.075262896449459 1.9759319629071836
Ar 3.4065942634614395 4.598558519252899 2.28243538051537
Ar 3.5625550983633056 4.733634071669355 4.969320626458653
Ar 2.227372612795708 3.3994815291548495 3.764097845656221
Ar 3.3284677113096506 0.2951109823413927 3.4329167970967753
Ar 1.4179759081793537 1.3871174954198868 4.6206576399005925
Ar 2.3531281214260042 5.001012451948605 2.032365143880539
Ar 0.6717332146570806 4.489190808928933 1.97028989681141
Ar 1.675357114951328 4.188407648785042 2.0236268499635464
Ar 1.8349553846137265 5.001124069418148 1.1368466162080477
Ar 0.8050516163683115 2.171115046809662 1.6309579686452929
Ar 1.8438725959379683 0.6392148127965708 0.045363409417856174
Ar 3.2684517267596274 0.7708324501999066 2.3565575210512515
Ar 1.2987040540025638 2.164735484062946 2.5421448890094993
Ar 3.809953572733814 2.5890112717768003 3.7468256995525784
Ar 1.1046040923522438 3.5361646493978047 3.147604765253581
Ar 4.480396499311692 1.994173288469563 3.2193285677728953
Ar 2.0824107315557225 1.4550719949948707 0.522882630146558
Ar 1.9242998796185609 0.9844632498021892 2.358380827605166
Ar 3.9484666771270356 3.885485917732514 1.6686354719136387
Ar 4.69760594315168 4.590945316972323 4.842153164806555
Ar 2.3419014500460715 4.75205282754654 0.21914757121531828
Ar 2.4005992772863833 0.2548631039005467 4.303460122666014
Ar 0.12768990594902194 2.6233064666979393 2.3269350858495748
Ar 2.217223666580702 2.060313344057993 4.205721981603932
Ar 2.7052297501514824 2.457016635130843 3.3964970602940547
Ar 0.9351687108887855 2.9534745543542367 0.8427115449704281
Ar 3.3184290168459185 3.5017378635272034 3.8222535758133764
Ar 0.4292383302424463 3.853809442796529 0.23172617520019514
Ar 2.19368907086313 3.922085205863167 0.950516736334429
Ar 3.0496371252471937 2.6108229007187345 1.8611539808718336
Ar 3.367124860510357 1.598990436400499 3.8286116764343543
Ar 3.204229099792361 1.5204607892839253 0.9612335152124055
Ar 4.634005992297079 0.5947711868042911 4.993747275682843
Ar 2.752626777100715 2.3718945135060987 0.5758897105196114
Ar 2.9722861607324957 0.63550718079935 0.42543991879046045
Ar 4.374211611186454 1.3398239610048936 4.1597969957654
Ar 3.9409071687125095 1.0683338578235384 3.1357634285665212
Ar 4.010605559683293 2.669010413319614 4.909440987659742
Ar 2.205483185375884 0.17332259691941232 3.194488498114815
Ar 4.638341908150974 0.37505271411366975 3.8332911690159683
Ar 2.200808116053922 4.220255855114829 2.8775185745754652
Ar 4.397631696560111 0.8385657970435902 2.0848099807289295
Ar 1.9415931275518696 1.8778017232516575 1.5225316733151508
Ar 2.9378020103635083 3.6254297787472685 1.7886537213875409
Ar 3.346311199007377 3.3300061722408794 0.6499302924943027
Ar 3.2995623731317476 1.9307321127643053 2.799045766777229
Ar 0.06115368340221938 4.2032856374875465 1.1274857563878782
Ar 0.04962774864017742 1.280948799581843 2.85969643282924
Ar 4.5017610289124255 4.71258595811342 2.017189507943745
Ar 4.797253458406529 3.653422615519155 2.2489900859578293
Ar 2.6154200326497117 1.2549028473243762 3.3021791633239546
Ar 0.4009098423345052 1.1948303059411611 0.7766180316690589
Ar 2.9412373531460636 2.760679392906412 4.697765319166075
Ar 4.772167994123296 1.9921925360119912 0.5042234547869111
Ar 2.1766291504403377 2.864818475725092 1.2209680213636611
Ar 3.7867133920485077 1.5596165234458437 5.0331380192826956
Ar 2.558873689395867 3.7682214633016575 4.813257093971162
Ar 4.476256340609546 3.5000259624737873 0.5819747938669863
Ar 0.6765602344015985 4.884825445762885 0.674414921345737
Ar 3.9360225847241375 3.8482465345382444 2.9524301518911047
Ar 3.77298016118269 3.7551069902353036 4.794985195319249
Ar 4.075118416896622 2.8116754079202657 2.2242579796719575
Ar 3.916211562484092 2.392366484782671 1.023807542591384
Ar 4.137245797228006 4.975273636023452 2.9523741522290408
Ar 4.665702097090511 3.0022054614313776 3.2041841527987645
Ar 4.1350408611016025 4.599295073335989 0.8106480201414193
108
step=13400 time=67.0000 Lattice="5.038789 0 0 0 5.038789 0 0 0 5.038789" Properties=species:S:1:pos:R:3 pbc="T T T"
Ar 0.04048421075977772 0.20933596887488054 2.5250100878978543
Ar 4.848053062737179 2.983207587263297 1.4613645106121613
Ar 3.8992213716484843 0.87963751254118 4.3021946661619745
Ar 1.3512454777512353 4.193173861058725 3.879120759108181
Ar 3.123892599063298 0.800356943914167 1.9188450298809325
Ar 1.929983111383129 2.739693037475995 3.2681066971189527
Ar 0.5346304852038346 3.5552905838581026 3.9320326399749277
Ar 0.7470728968707377 0.4784350352389878 4.350310945750331
Ar 4.012816806293456 0.7120471987895063 0.9695676591238285
Ar 4.820817752124967 4.2647672173725635 3.167947720352219
Ar 2.9381161265152684 1.2790215919897114 0.08116219857179119
Ar 1.6122367064574423 0.2941542685216556 3.7489841430083986
Ar 0.5870717741111947 1.339174526803008 3.4569632141485918
Ar 0.8337433581896111 1.9520737878007577 0.4695957921081895
Ar 1.4464586817354332 0.8568315392084687 1.3815924250628429
Ar 1.069720545438507 2.0559877590933837 4.329253418655259
Ar 3.8961417183282685 1.7078768293287363 2.3207630172269114
Ar 3.129707309191214 3.02211768968907 2.797904895404642
Ar 2.725095391788994 2.0033206120504277 2.4173689566215812
Ar 4.536496587122238 1.5692087599828688 1.2842457413055186
Ar 0.837297282054711 4.639910725683152 3.051912713978271
Ar 0.2863338826573557 1.461604951098545 4.700201871919272
Ar 0.9801207423601086 0.7742645499171703 2.457318148598065
Ar 0.75492765356758 2.5580751396937838 3.173553701201866
Ar 0.1808643720962676 2.551086271780379 4.037852335191189
Ar 2.413733121472846 4.70204178772576 4.120733678094267
Ar 0.415496086231913 2.921833165895791 5.016092082006148
Ar 1.1063535718733137 4.9621525853879085 1.749984829421908
Ar 0.04705341197528385 0.08754552284262458 1.4333524194755403
Ar 4.6173731337524195 3.5743288632946717 4.202582744442304
Ar 0.9057338631622116 2.908125693294788 2.0092832560668943
Ar 2.0668579628966155 2.9673222173946696 2.243597083251971
Ar 1.7491491928619642 1.252085541875193 3.204521793934402
Ar 4.197566123461152 4.577396090180704 3.9719148117686265
Ar 1.5862756844417567 2.6852850813717035 5.009036216599945
Ar 1.6457851736249527 3.700236813077789 0.2721326686964262
Ar 1.0452037768660036 4.078689132786839 1.164547242369041
Ar 3.3229954882820274 0.00517642271524439 1.2498596762736838
Ar 1.469415922213038 4.809270757377778 4.719582756962385
Ar 0.2500274197144699 4.6725434508994335 3.9202048645913776
Ar 2.5320320529960214 0.6351409413818253 0.902959064421851
Ar 0.2619672503536492 1.1295235001331811 1.7915437570465236
Ar 3.0890697473875535 4.714327723076751 2.7498195234180396
Ar 3.356323112438415 4.673241045521689 4.538759043962947
Ar 1.421672962831498 3.127467957818072 4.049228217805511
Ar 3.3383899666643124 0.22344341383169286 3.7145410891156487
Ar 1.59341351802125 1.1871815561253813 4.397531804858006
Ar 2.3634469745589057 4.740828823506392 1.6403667351971096
Ar 0.6429337380641302 3.9924787924822915 2.2780736398827512
Ar 1.6028751692959056 4.023244859936186 2.2000484230618786
Ar 1.7458446170331947 4.684720646438655 0.7275977344376711
Ar 1.135732072128589 1.893188868107389 1.5279679596629474
Ar 1.5062725564223756 0.6806985231198265 0.3174314254545458
Ar 3.00783948610062 1.064208392096508 2.892730329216668
Ar 1.4841202679987302 2.0036084664761127 2.4633587744483942
Ar 3.954280532192564 2.836863052733714 3.666674937456451
Ar 1.2204963788045249 3.5041434197855525 3.031108669822992
Ar 4.509623906381481 2.164333648676032 3.1630925706336015
Ar 1.845894470951196 1.726675826233591 0.3702655305789504
Ar 2.087847137524209 0.7915838494407036 2.1550131881436627
Ar 3.830587509905214 3.75918773802217 1.3500444238763833
Ar 4.634555755935686 4.469060032465325 4.941462956609675
Ar 2.6679916462240545 4.598861638637088 0.29118403932726317
Ar 2.3652561189327304 0.4951888486760508 4.740800398671728
Ar 0.21150769295476118 2.168106594421283 2.2237981924896473
Ar 2.22112430366431 2.119647506717936 4.31108383900411
Ar 2.8321700570338577 2.8867033710116297 3.921855461456255
Ar 0.8280433417852151 2.997334138075814 0.9167972755993679
Ar 3.218654893348542 3.9571570110471166 3.599707918447466
Ar 0.6310909999354054 4.115864941591628 0.20232764378634308
Ar 2.0186412002808005 3.7174739710156146 1.2419694754391533
Ar 2.982176647875078 2.911283884290857 1.6372865165878756
Ar 3.53002155320072 2.001878099280937 4.4157504592486
Ar 3.4496175358494785 1.6086100361547686 0.9342181935918309
Ar 4.719727690322873 0.5717841886917228 4.842044202601181
Ar 2.647244587035184 2.311428981536591 0.5029078640994141
Ar 3.5803720498113027 0.32766965952406013 0.163721480379589
Ar 4.444501441435532 1.720643874894519 4.165537591850611
Ar 3.9197976179485265 1.2213126493621977 3.3613868622809173
Ar 4.373327514416223 2.70781488381995 4.7664861745241
Ar 2.018181489805315 4.794909741420162 2.8116162795225805
Ar 4.824893088642812 0.7067168445115726 3.804139205397986
Ar 2.327760528903922 3.6841550315138507 3.2344064405703197
Ar 4.153529361958551 0.7822601888264317 2.030713373935192
Ar 2.314941700237117 1.681614370735585 1.353476645625773
Ar 2.955226772949817 3.935412094630767 2.0315569257988253
Ar 2.841761941200638 3.4535695704449583 0.6727209415445903
Ar 3.358003013574359 2.065257809080955 3.232203347970276
Ar 0.07313357685049086 3.958558738259252 1.1707675221988776
Ar 4.8677137985410495 1.2271202439444369 2.817914963101669
Ar 4.045930344357473 4.674969724183988 1.936706069125204
Ar 4.654453248183921 3.773726782282076 2.181730194557244
Ar 2.9444993808719255 1.2464590616177693 4.055524990738932
Ar 0.21788922809653516 1.1227191243865116 0.6580463743721864
Ar 3.2906372545372817 2.8705341179632997 4.872641574522452
Ar 4.8781475771610605 2.3636477597209846 0.6639219842527481
Ar 1.9149976995681728 2.687453553317316 1.1671528028742164
Ar 4.303269607896921 1.5036524699154867 0.16635876994599977
Ar 2.46273081121598 3.665685857003217 4.573732897141102
Ar 4.561527893904923 3.4133436179102694 0.49342865024490423
Ar 0.6395257713600762 0.14659643775986486 0.5591517594556688
Ar 3.824981537162556 3.817445755095099 2.729470199731185
Ar 3.6518080092161993 3.845553501982476 5.036105787706521
Ar 4.133677180802651 2.7930283065500037 2.302178006342324
Ar 3.744172609864544 2.758360829644235 0.7082164593172857
Ar 4.142146770322241 0.17305765624084157 3.0169816671762724
Ar 4.868468817968851 3.1433208695027317 3.1378409588076672
Ar 4.31251807448625 4.556850514213382 0.8355839847000194
108
step=13600 time=68.0000 Lattice="5.038789 0 0 0 5.038789 0 0 0 5.038789" Properties=species:S:1:pos:R:3 pbc="T T T"
Ar 0.1995992203894423 5.0328819383376935 2.3079523763825662
Ar 4.887086463574063 3.157453209245688 1.3586950848296475
Ar 3.6391256638764578 0.6948041848902887 4.567606732164633
Ar 1.170590862539185 4.642620419771792 4.0426512766499245
Ar 3.1007137530511537 0.6537280674748891 2.0619385006377215
Ar 1.9671245413706007 2.6031566927774463 3.245415287072652
Ar 0.5697452535169921 3.4164618051122657 3.677623836944001
Ar 0.5383034790472014 0.45113059139326 4.481380459878234
Ar 4.320965375689601 1.094838068944606 1.163215430229105
Ar 4.595369704866217 4.284674194104926 2.8519818614929813
Ar 3.2227150775631577 1.0122611464689402 0.6434492845664227
Ar 1.5743715400880895 0.5776273891135568 3.852498980161786
Ar 0.679376355051495 1.4674340101866372 3.80564865957754
Ar 1.0941493073861097 2.1415262115117097 0.29686106830971054
Ar 1.4583128550114028 0.9695733237472641 1.1665818601419278
Ar 1.1438762639611553 2.3761222742504757 4.1009417208221155
Ar 3.745203466485957 1.4916339539298111 2.33538480635113
Ar 3.2068068462183623 2.5582327565871776 2.854507705669718
Ar 2.4119276124467266 1.8932652156539473 2.3363069809040407
Ar 4.434049402231854 2.016824084919119 1.61927938598337
Ar 0.839800593343095 4.33112755496494 2.9536819665036638
Ar 0.16448844462165618 1.493811141843754 4.6521048602988575
Ar 0.9481575731201209 1.0166643063050391 2.648899581050742
Ar 1.0741465853919974 2.1413092598381223 3.0226119219686187
Ar 0.17385024575054014 2.4451935351182357 3.6287746153571105
Ar 2.305315033342185 4.934238194542974 3.9706065050988655
Ar 0.3850972627991881 2.7047212283920623 4.717782062006801
Ar 1.0368392583619903 0.12020329982292953 1.8325665713257344
Ar 0.29143095904513155 0.5404740262139107 1.2018423218048055
Ar 4.703573610779196 3.614445571282183 4.291945038956549
Ar 0.8008615236311288 3.214468951793068 1.6334284933148253
Ar 1.8152502439473628 2.786062950780099 2.1052699082374384
Ar 1.8136567119988272 1.496274971407753 3.354356857954109
Ar 4.402630386351953 5.030468821305729 4.199244222827792
Ar 1.7882771080815087 2.7933005173599494 4.950820211047027
Ar 1.7403254584214267 3.9237142055095897 0.11995334726871783
Ar 1.154254840150605 4.181927539104469 1.1739818283345833
Ar 3.4276238571287148 4.792743774243853 1.3339757242649424
Ar 1.7806322395543697 4.944332737019698 4.885078105619317
Ar 0.10550164435932029 4.406553979422818 3.8675070438166026
Ar 2.526981588406016 0.6164331902185393 1.2705501405691946
Ar 0.37802631224788874 1.351699360072715 1.834238827058349
Ar 2.6951366828586485 4.337608460417547 3.1710330510118228
Ar 3.62256313258419 4.58529200146838 4.70812536421758
Ar 1.6076041754972177 3.3244440921024867 4.073977093546827
Ar 3.3303746109746974 0.11481730518127657 3.6714142386477984
Ar 1.4725938087177153 1.452855293272873 4.4347778496240755
Ar 2.596317244514749 4.541652451538644 1.9470734699787722
Ar 0.43635328413310365 4.135863033056862 2.025731107881277
Ar 1.6234199774000142 4.036114811765657 2.1283371277674314
Ar 1.717853247299509 5.001943393961629 0.9099750734552144
Ar 0.5518832728689684 2.386699355652916 1.0922647747001974
Ar 1.8037633522263699 0.9485328365728697 0.23746740725442375
Ar 2.5199957709694307 0.6221943882434027 3.0238224800453914
Ar 1.4066490186783718 1.8570668710809928 1.8392738701190465
Ar 3.966533052877478 2.8243616577950204 3.7573169891955747
Ar 0.934167757587581 3.221255915652874 2.633350128543917
Ar 4.360384382971234 2.3707627900743296 2.8811464566942617
Ar 2.379948729740109 1.8369576427376455 0.17829974213937314
Ar 1.8689558095090988 0.966927191649023 2.2080091145727025
Ar 3.228621987584597 3.6933991311833942 1.421819676825843
Ar 4.888081926657196 4.7036153630869455 0.08339732190321834
Ar 2.544078402767576 4.231063850317142 0.6775122275438172
Ar 2.8824216957625506 0.046082632688679875 0.09607354591162405
Ar 0.33620673079312957 2.301041292977096 2.231663820609895
Ar 2.3076693198928435 2.1645991721705733 4.227049776550319
Ar 2.8668591456165275 3.0903059998069593 3.760714341402721
Ar 0.8639578707102519 3.189295126715986 0.5315900639335653
Ar 3.7307220880104826 3.8783713564657996 3.8845001043757925
Ar 0.7029301362555208 3.883636676014117 4.850957910595134
Ar 1.9863351375270197 3.4874187409137143 1.2511095924440838
Ar 2.768364922641724 2.760565028230333 1.5210724235033273
Ar 3.3771497570203355 1.680116812734904 4.321805218835566
Ar 3.4839441262597806 1.7261246883675923 1.3316499655424119
Ar 4.836211217281513 0.7417690489825544 0.3398585221162555
Ar 3.2943115091206447 2.235261114979898 0.46286264897525936
Ar 3.9371763836588705 0.2523412197310085 0.5082398760459524
Ar 4.350536024832262 1.3505393849141556 4.001127865232306
Ar 3.7009284596306706 1.0222021500000875 3.2722967838265546
Ar 4.329899305573226 2.280902901109601 4.598006316972715
Ar 1.5999588639201308 4.994168492915864 2.802138512367921
Ar 0.2737117716256623 0.4248024119876473 3.4383026202119513
Ar 1.8507110681884502 3.7591309471997802 3.113132620073565
Ar 4.375269189779903 0.6456304221684134 2.1210270761935326
Ar 2.4580161749583667 1.6320151403806797 1.2499211011532303
Ar 2.61647858919953 3.3664823205744057 2.5227425064742444
Ar 2.8139310156532527 3.168576292347053 0.4495167865588983
Ar 2.8860124312423108 1.614418830842979 3.3802763749812126
Ar 0.16112527286556264 4.035175780534534 0.8683702122944235
Ar 4.97846015442068 1.4302725340212772 2.9036103474859654
Ar 3.5753628801429183 4.6694340119459845 2.409774852131257
Ar 4.255071883400112 3.978626485489152 1.808657837480425
Ar 2.456817488226071 1.1041243346255372 4.371520228416732
Ar 0.5772061198843501 1.4058921723850195 0.6649679667245895
Ar 3.7676018666047417 3.080438021695272 4.943711167582916
Ar 4.632024859164905 2.1482379872609063 0.5796547984570884
Ar 1.8296110774599343 2.491421542044358 1.0325415746668636
Ar 4.026016958855587 1.4146597315675464 0.08070530271979465
Ar 2.697918133367374 4.00116990601393 4.309216929165865
Ar 4.661090150803254 3.2313642098245428 0.2952935972606409
Ar 0.7974203532207753 5.0228114624732365 0.4201934837469636
Ar 3.6678711482973663 3.7028343545933673 2.7955221869875206
Ar 3.926406595013123 4.075645075703959 0.7410281572131988
Ar 3.743050579162892 2.9660131564443475 2.1389884624746656
Ar 3.9554156051413343 2.85082634996487 1.0235611204355064
Ar 4.289924514559019 0.19532252213620227 3.0709536708151512
Ar 4.824834150087972 3.1981767462795947 2.4326926290648037
Ar 4.431437550368766 4.864069070241375 1.3351389365369408
108
step=13800 time=69.0000 Lattice="5.038789 0 0 0 5.038789 0 0 0 5.038789" Properties=species:S:1:pos:R:3 pbc="T T T"
Ar 4.932819709605336 0.08515744942980681 2.2143338391227814
Ar 4.829916571648439 3.268392298245381 1.4657032891922992
Ar 3.1453068489415434 0.7141689475510093 4.691605815400859
Ar 1.2251174598253596 4.198806464640628 3.991583588159084
Ar 3.1468869047255934 1.00578770005662 2.35689451523729
Ar 2.153760492252236 2.4198045720681844 3.0429533228270937
Ar 0.6356997342159352 3.2326394725097036 3.570993700125524
Ar 0.6223770369164577 0.7779741105629694 4.52615522719469
Ar 4.19760061394538 1.0989953558210401 0.9759085811321285
Ar 4.479652533950825 4.636028800349934 3.2376103832063694
Ar 3.265899164942706 1.6162356580076003 0.7114177154948487
Ar 1.3331986095206907 0.31583665413398027 3.878407733234319
Ar 0.5930718732763726 1.2934377996048645 3.652994058893593
Ar 1.1431114845010866 1.74563485938868 0.35192330874203237
Ar 1.5686495306019206 0.7533484030848717 0.9790181324988142
Ar 1.5542630068804866 2.2732912369949174 4.039593616182709
Ar 4.039031635921383 1.7300328445355053 2.748354317235405
Ar 3.133769542352102 2.6264943250743156 2.663075874478113
Ar 2.4592390380734868 1.7572159485972352 2.2333218923465585
Ar 4.710241160848568 2.058557970618598 1.8591708937445959
Ar 0.7384605732208478 4.2693697366376195 3.028237943160712
Ar 0.158623290462778 1.6324117583223992 4.861786494996885
Ar 0.9938241175305537 0.8880161380244337 2.7060589837701023
Ar 1.0317069883698804 2.0927727594539736 3.023456388113244
Ar 0.032235098891307504 2.260885192036287 3.4376423082000067
Ar 2.135329967615602 4.669886550877129 4.189423344822147
Ar 0.6392357536332762 2.7761307055625863 4.506819010447808
Ar 1.6730355635440908 0.21560304410351272 2.0801845740898397
Ar 0.6480671668400715 0.04752154997952135 1.3790650848605368
Ar 4.899140612923455 3.609662869857855 4.279911986175485
Ar 0.8594470573076477 3.0454002418742707 1.5550039549702537
Ar 1.795010964158905 2.6041814443111893 2.0842753585755847
Ar 1.746908102595873 1.4095733050056911 3.3984544851626204
Ar 4.300475732147696 0.40409255391046545 4.079282686289059
Ar 1.5993841846032488 2.8805450488469098 5.017463552524499
Ar 1.8761911792961827 4.001130464052645 0.09868828801274704
Ar 1.1492913923069015 4.008168302145214 0.8293700895165873
Ar 3.3117588018904174 4.8935366166043535 1.373406121011958
Ar 1.2667732575033364 0.052864450848375925 5.015906376309755
Ar 0.06663217523410545 4.578604414521761 4.041096300156672
Ar 2.6122675721771578 0.7211351071855517 1.489880578766069
Ar 0.33176979686149016 1.0260786482092044 1.6136026479715453
Ar 2.8549804574451514 4.295015506419555 3.3439103065480795
Ar 3.3788579478100083 4.4696376602870735 4.635648919921095
Ar 1.6162987631475334 3.3111505306961995 4.053661095069995
Ar 3.5007486533045102 5.006059476076962 3.640529436485893
Ar 1.456681955028014 1.3617018725468133 4.418841032509703
Ar 2.6721278861917965 4.546077396724917 2.2521749839599177
Ar 0.4621821197904995 4.102250638940236 1.8976832120339027
Ar 1.4905568553406925 4.09111102432803 2.1197271281986816
Ar 1.9178958579391394 4.707743222976968 1.1919629990417948
Ar 0.39434473789937036 2.013877591341435 1.0667249759337103
Ar 2.3258639574772597 1.002980544201967 0.1756021985672056
Ar 2.259290599196738 0.7103649231188573 3.912027442213398
Ar 1.5556991022283302 1.3446060619168325 1.8632925793839468
Ar 4.069661066829915 2.770105773152058 3.2662814374885607
Ar 1.0788766069419717 3.168448066860007 2.6523202064969444
Ar 0.07006531201584819 2.958472958317149 2.4259848188877062
Ar 2.1609077279176314 1.9666454113044811 0.16564033831751124
Ar 2.1847802798308855 0.8357257018333976 2.6736460662957606
Ar 3.2356381362143685 3.72851293962916 1.6406171692165283
Ar 4.378068761135081 4.428268059688074 4.877697231615246
Ar 2.7825787841452287 4.102118803500704 0.6959019086749704
Ar 2.44331012250335 0.0180606066582907 0.08450322077457773
Ar 0.7139749246398055 1.953023850417368 2.0445498925432894
Ar 2.696358180298533 2.705357827784013 4.480849587556897
Ar 2.757863344973612 3.196785916038417 3.606179573166457
Ar 0.5901427269050536 3.1234340172422845 0.575655602317647
Ar 3.723252121572646 3.7906308857916517 3.7732556218124254
Ar 0.7871480032040834 3.8665311559464413 4.883013196484578
Ar 1.9422668228452717 3.3954081449263303 1.2947553824860853
Ar 2.7902670044559095 2.6270623705950813 1.6163972001922764
Ar 3.607999881075233 2.0560422756276933 3.9142249602886063
Ar 3.4507068096524023 1.8460454263101604 1.7728882443004148
Ar 4.675556978469186 0.5585640306348463 0.07168276550449673
Ar 3.5941416063447837 2.3609186097023276 4.971911937525458
Ar 3.718030233530034 0.007013568824001613 0.38798719337269805
Ar 4.366910144913452 1.4123981736330038 3.8257922419742885
Ar 3.4217896673893176 0.9970590862788349 3.7799542107262414
Ar 4.675297844366364 2.465467866858804 4.433405836701457
Ar 1.8401183672747867 4.893840699190528 3.08583754361692
Ar 0.3758470553451991 0.2348735853331949 3.2742364983621957
Ar 1.7757342475534663 3.832098976785413 3.1362215296908253
Ar 4.30166131892881 1.0005985179715218 2.0860356281877896
Ar 2.265942112203731 1.6169216905775863 1.2240167426609463
Ar 2.3842206884524266 3.449478703941056 2.34914415375436
Ar 2.6146197259876884 2.815231953755709 0.5981968239873645
Ar 3.0571101719973295 1.721598273975607 3.1624003784582038
Ar 4.902303576895173 4.170554256602728 0.9383086109644324
Ar 0.04773843097335713 1.4026696211774368 2.6404274275064417
Ar 3.620040483478529 5.015216075248028 2.371863090596214
Ar 4.356459552600643 4.130834637279223 1.9965956641762874
Ar 2.5476895512382076 1.6741933223000391 4.0832435356515555
Ar 0.6042081010307778 0.8885361902476987 0.5704610066672511
Ar 3.4642790181670593 3.451192516509136 4.854357675001646
Ar 4.505286008717597 2.237352660812903 0.6824205625229415
Ar 1.6280586799822614 2.487575632625459 0.9814083162359835
Ar 3.966520723770619 1.326259763262883 4.935938510936711
Ar 2.609561559912042 3.800579769896722 4.392572445511987
Ar 4.568010194609896 3.149821729946438 0.1559346621200779
Ar 0.29973110524644847 4.8420130288528735 0.10724448179260497
Ar 3.469355769675376 3.793423725479306 2.655327868270678
Ar 3.854601545592458 3.987539046030934 0.8272325273652501
Ar 3.860424463977372 2.9021846952540002 1.9484460740847747
Ar 3.6334788585126883 2.810696877274933 0.9374463367217761
Ar 4.391335934330594 0.5940979382271379 3.0355391131450484
Ar 4.908496226343007 3.6949483447379077 3.0795219028827567
Ar 4.366656669991732 0.1353724457445039 1.256073950299672
108
step=14000 time=70.0000 Lattice="5.038789 0 0 0 5.038789 0 0 0 5.038789" Properties=species:S:1:pos:R:3 pbc="T T T"
Ar 4.972369902417224 4.901360969826334 2.518286151479462
Ar 4.737700023147533 3.1714382416619706 1.283686750403934
Ar 2.9011297285861017 0.8870425116440452 4.759574145991529
Ar 1.3281448167541574 4.126321659722554 4.387597724211165
Ar 3.5468059882965415 0.9006605505600764 1.8780518471477945
Ar 1.9219863388117073 2.6793094516134532 3.028928602772146
Ar 0.8072332137789249 3.337058933656937 3.850701035784417
Ar 0.43215940816933707 0.7769506245210297 4.689898541388877
Ar 4.013857502808948 1.0795531254418516 0.8947791961191303
Ar 4.2319351056593355 4.785625318897464 3.4989599281236727
Ar 3.013749199242759 1.8870649987194457 0.8659452816582609
Ar 1.065073853993914 0.30158437847452324 3.923087567253041
Ar 0.6430348918775365 1.3653207459520804 3.8169351542192502
Ar 0.9843722944264041 1.5477712823600658 0.24958782522788445
Ar 1.574537396494602 0.5516157275497291 1.2550435377262537
Ar 1.2011554351536973 2.387716962840018 3.951512216155933
Ar 4.433519150926014 2.156720933458386 2.878838313417143
Ar 2.991687307881994 2.6781996295095927 2.6231469965997487
Ar 2.6088976780962216 1.759429421047003 1.8553783317374406
Ar 4.942311408472068 2.1437623669039305 1.7894705350912228
Ar 0.961297730796665 4.590383564916437 2.903642346574511
Ar 4.701921861686995 1.7905841764071433 4.918281177457222
Ar 1.1450619527080441 0.8861015499171454 2.948532690931202
Ar 0.9805457590390996 2.04031930897107 2.889826340701423
Ar 0.2559334375506656 2.3127713985033687 3.6317150254198287
Ar 2.3356282897587732 0.1643114540709242 4.27854510142153
Ar 0.31097063587720847 2.516246793316372 4.666683420142424
Ar 1.6416291499642035 0.07127752443123785 2.28744718737908
Ar 0.8755268019043688 4.763332818534425 1.6735175113256944
Ar 4.812457407651796 3.287832740740496 4.116047984204352
Ar 0.6929700747277974 2.790074218094534 1.8568645090450915
Ar 1.5805303044109682 2.3107954277139027 1.9818682429494976
Ar 2.0886029674046784 1.6789799219969574 2.861789116418524
Ar 4.572738519846384 0.2918091913584489 4.467789912822879
Ar 1.503821137510182 2.8087052422106913 4.932358685496604
Ar 1.7271894072531464 4.0161773274503965 0.33297584841575717
Ar 1.096998305664312 3.5384961655796134 0.9800068216027817
Ar 3.5000054989863347 0.041754835604079256 1.3492932066771595
Ar 1.4259983196873585 5.007227539276256 4.935731236914017
Ar 0.20754694537888602 4.245204311629122 3.6693572401209034
Ar 2.729742884031918 0.842721816830295 1.0632492961124604
Ar 0.6484027058249267 0.7086851582073599 1.9947232454147088
Ar 2.792094715418213 4.426812227806156 3.531252627687373
Ar 3.2582113423973538 4.819326712677551 4.337306745363739
Ar 1.8563436755577911 3.2527968641198224 4.016888105858746
Ar 3.1380204939595355 0.1908199358477632 3.1347087272546212
Ar 1.6384679503917605 1.2215234559578116 4.158253605319521
Ar 2.7823135466331768 4.557131595756445 2.427221444153308
Ar 0.4360398492303898 3.86749067473124 2.0250695872644666
Ar 1.500276139740983 4.028628535575336 2.126059411895512
Ar 2.3963170274392347 4.773494638839456 1.3752906310801134
Ar 0.049268408377134976 1.1687294263688157 0.6448914312403586
Ar 1.9651908801217066 0.8472675015400262 0.3483884417593448
Ar 2.5780084618385763 0.9644332293564931 3.5545807077085847
Ar 1.6192343926145318 1.1947644040795098 1.9981194506306839
Ar 3.8040453334101296 2.924415139332273 3.25271842966483
Ar 1.1719263817701397 3.286309071694333 2.841691628566372
Ar 4.910075084432387 3.0695481464200483 2.7435395430584157
Ar 2.1558195713099297 1.7902446735420228 0.0019375524061038185
Ar 2.544919003167925 0.5306744810719388 2.3506837288205396
Ar 3.4464941566482175 3.9903185363448475 1.8057879442763638
Ar 4.522756610400112 4.165493610273414 4.597634085430234
Ar 2.8543559637189118 3.9350142013986837 0.9154693135888663
Ar 2.599713911671535 4.96298295379927 0.4142507295888778
Ar 0.8879768314537703 1.5048653715781153 1.2516844995571255
Ar 2.655865362224627 2.7740333897175486 4.738178726737336
Ar 2.846205527751368 3.2923940485589895 3.713127997398629
Ar 0.3156261485045923 2.2346262853036833 0.7325026426635756
Ar 3.650279943612845 3.8836031498294634 3.8855023170255483
Ar 0.6340763914031486 3.507925528254944 4.942657681286586
Ar 1.9279529169012115 3.3708033817953336 1.6037068296598986
Ar 2.9962302620367187 2.8462298612196175 1.5449845339115407
Ar 3.2363137814842746 2.162147449734874 3.6881729070010314
Ar 3.6390614967107897 1.945340962120446 1.7583622227266738
Ar 4.648376981153866 0.23562883209944696 0.47138693465222586
Ar 3.7546785211706997 2.9391838747257797 4.472916756030114
Ar 3.528038892524978 0.275110190918923 0.3541778177629166
Ar 4.592982174867053 1.2800635423839166 3.8780320879786214
Ar 3.6819557065128277 0.817387766553024 3.998978947098931
Ar 4.371630199003984 2.294326802293108 3.999011696836624
Ar 1.9317079947991271 0.11509723527684916 3.2831661026172143
Ar 0.19254311762884074 0.447454801654978 3.2764453241031086
Ar 1.7218988854386728 4.023060669465216 3.2971412736099035
Ar 4.608527904967582 1.1053144739156258 1.9515875453313913
Ar 1.9824375831005046 1.5816187127959882 1.032827049562119
Ar 2.384532517630866 3.655829789654731 2.609141325652753
Ar 2.3897223564280323 2.921837193826406 0.6652735575413573
Ar 3.538325843656647 1.490663850752437 2.920216597863329
Ar 5.0164644719711315 3.925458616829191 0.6496031046236093
Ar 0.07155573686336052 1.481354856706856 2.8615579236056274
Ar 3.8856848915700986 4.773220149295501 2.360744960341353
Ar 4.415091610164264 4.1529973778871065 1.5581100446661778
Ar 2.2071031952794713 2.050053962033797 3.857958393546402
Ar 0.6948562279464175 0.24260306593547593 0.6409041047084891
Ar 3.3104972766388197 3.8369081684866653 4.987478976061457
Ar 4.313380741193081 2.164157310390736 0.9668031236857872
Ar 1.512227703880559 2.53345363435498 0.9380020202324301
Ar 3.625239081149634 1.6389578996145853 4.909788447521452
Ar 2.420973917356775 4.034194073249984 4.408990013440215
Ar 4.655932263847445 2.940795605770925 0.23647551141314005
Ar 0.46234164747346423 4.73042804330669 4.681164745575532
Ar 3.372697615421374 3.8601768752946226 2.8777088764752925
Ar 3.889062767768471 4.330948694794239 0.6045119670911421
Ar 3.9426796489755387 3.1662674760712815 2.169729251435121
Ar 3.7263821699491024 3.338159767626922 0.7892752393216798
Ar 4.313599937700357 0.7810465062126491 2.9995497402200666
Ar 4.46082408958207 4.059275345247494 2.769031729721594
Ar 4.5527555995061695 0.21426949962490333 1.4941889012938705
108
step=14200 time=71.0000 Lattice="5.038789 0 0 0 5.038789 0 0 0 5.038789" Properties=species:S:1:pos:R:3 pbc="T T T"
Ar 4.862307342472898 4.994901354434805 2.4828719866687985
Ar 0.07490703623262061 2.8814765790653474 1.5008616500251915
Ar 2.4849726128330056 1.5918224493921522 4.726933474264828
Ar 1.5892159997674589 4.234689504794247 4.268782410327743
Ar 3.5974959950631606 0.8506885775153414 1.885262999708914
Ar 2.046250119114641 2.8580969554154483 3.239550583577572
Ar 0.80608571615606 3.392203880458979 4.710627314944927
Ar 0.05306586086790536 0.24701875497659068 4.654496193201399
Ar 3.971939751080474 1.4443367257985098 0.8033690103112184
Ar 3.894501817669242 4.726239905330871 3.272554743780292
Ar 3.391790546221946 2.4890815731462284 0.7029432368771881
Ar 0.895769358851743 0.3552191829132062 3.8880286813484273
Ar 0.7566059062333045 1.505469326037373 4.027212766256156
Ar 0.7146021548743607 1.0364390217756612 5.029821376309579
Ar 1.6610252110800485 0.11232490003176401 0.9169898013368151
Ar 1.0239602926185274 2.5790112083988226 3.992029592399798
Ar 4.218056557500315 1.8188377185186486 2.6801884217125957
Ar 2.9898129233667556 2.43833484806375 2.7598150918686843
Ar 3.115990593259257 1.777272489417217 1.621205543909689
Ar 0.2593100210243649 1.830447874434785 2.2235020693815204
Ar 0.9192536537181522 5.0327083603519736 2.7129041470205073
Ar 4.62354240237496 1.2525997548459529 4.906150324879976
Ar 1.3911689378984224 0.9828386986102029 2.9595606441207205
Ar 0.9614648681027189 2.0353744679466828 3.0180050575157336
Ar 0.019988448368176988 2.3143627189464437 3.3801873181240616
Ar 2.6838254251567277 0.20456150512065935 3.9670177552139867
Ar 0.09196629320279025 2.1553748033209867 4.7201479948351945
Ar 1.559248560266211 0.27301894659119696 1.9706567283555216
Ar 0.6772189798469738 4.55788869367883 1.7050868578137408
Ar 4.852916703919413 3.2474456645857823 3.928557955098602
Ar 1.4533865312694958 3.098329886395972 2.36446033792703
Ar 2.15403886778742 2.2780106678281946 1.8278635912370325
Ar 2.03402640873934 1.863219651976556 2.771873216467719
Ar 4.0662309080681185 0.13854114341773657 4.35367794776782
Ar 1.2302032991193939 1.964695005633121 0.06680938618291145
Ar 1.3303944901001188 4.2811376413612665 0.3293989756273093
Ar 1.0163012249038954 3.729612529270956 1.3139425142679493
Ar 3.8664385434214155 0.3609888935961085 1.103682420593743
Ar 1.364077106927873 0.11942270713487978 4.777116054539473
Ar 0.3108906711309416 4.232377035760068 3.6752085477938112
Ar 2.922174623839701 1.1327871509585612 0.8292839349717872
Ar 0.5010074507138169 0.66294420117882 1.8404587405088686
Ar 2.9302087635646146 4.300556948332753 3.0380130059786437
Ar 3.3976033917015327 4.49658697975167 4.829671051431949
Ar 2.048209565665906 3.252808387669091 4.276808914935227
Ar 3.0493064217824895 0.2987568541319306 2.8995713140865456
Ar 1.7374335003958898 0.9553238235138419 4.259836601274706
Ar 2.5469015124887737 4.613878748268286 2.114887587948642
Ar 0.43062975110355756 3.9398420185629432 2.4631279410970466
Ar 1.4831920030057302 4.209382337882562 2.2870814367505816
Ar 2.723821766516689 0.25891123587861864 1.3157963721864967
Ar 4.8731507140345425 0.9698667026133068 0.8256184855066163
Ar 1.9760769805154677 1.0287860129961366 0.3972097881011165
Ar 2.3103231531938624 1.140181640282641 3.498064589069845
Ar 1.244671418554657 1.4721510856802227 2.0416717456068354
Ar 4.013215124301088 3.0353463078894083 3.1982839620816628
Ar 0.982368841650657 3.540863177658917 3.2712315226798276
Ar 0.08105342003843795 3.023649737388763 2.692362577718889
Ar 2.3318596214090674 2.0982928433269543 0.8271992433594263
Ar 2.3609568875351985 0.9318054109430103 2.438009115313214
Ar 3.1403896203235893 3.9739319613112354 1.4964592652313227
Ar 4.380997766266212 4.051997870614739 4.924265844412255
Ar 2.360625853657303 4.36859115437433 0.8529470992877264
Ar 2.606928831773266 0.15049239927795066 0.25954532295028265
Ar 1.0114979217737023 1.1237616388193152 0.980930338147687
Ar 2.5818337120734642 2.5857856413674 4.937978380561505
Ar 3.0257672928221417 3.210958592431994 3.5712066555442923
Ar 0.20777895330276291 1.9613933399185552 0.8413851879579083
Ar 3.728329463400501 3.9132957846930827 3.8458052043040105
Ar 0.8818870940929863 2.884186566763878 0.6246591633685097
Ar 2.1096680853593313 3.4606353777943584 1.4618155314188732
Ar 3.310247709781951 2.913677041562953 1.7571981283328058
Ar 2.976515166903219 2.1018460107240218 3.756608872253192
Ar 4.230139256176938 2.252556426300045 1.63132207640113
Ar 4.433420077961081 5.028145475400024 0.29711210657767356
Ar 3.997320877597735 2.97070823271894 4.506325827956248
Ar 3.5797008595854445 0.7692821464705034 0.0411726464747008
Ar 4.709217350397465 1.3623640797801035 3.788589045506637
Ar 3.369570770099192 1.0556871848485523 3.953058730241818
Ar 4.0633954355504915 2.120580748983428 3.8021331574271153
Ar 1.9844249673965133 0.08608522262691207 3.0520477470232206
Ar 4.923635671715968 0.18770001083514462 3.5838289049573993
Ar 1.9359077270148084 3.995201556050551 3.2203738190433726
Ar 4.614649125309091 1.1899148815253842 1.8319786853167628
Ar 1.9873034565652168 1.2260464073449513 1.4027900922940562
Ar 2.518807528924494 3.4715146290158905 2.467240442101583
Ar 1.8597242894835346 3.4071168495586344 0.35790769752077084
Ar 3.199597881987227 1.3877807521111805 2.7814043803565065
Ar 4.991303874761097 3.7833501304110158 0.8660715814295502
Ar 0.2198700619032003 0.9928133695316137 2.857449388753574
Ar 3.77886387718599 4.789160037372307 1.949639194169434
Ar 4.5321996808261575 4.131099491198725 1.6954045189771383
Ar 1.9821648540057955 2.1753062280824063 4.119664873866746
Ar 0.5873763373011656 0.16572765371432543 0.5137514909191881
Ar 3.3544250261200483 3.4012137788894408 0.31594877952821643
Ar 4.367052178169285 2.3378496057392666 0.3358868885808449
Ar 0.9971302982624123 2.348747209116263 1.4940164240843596
Ar 3.64942200419195 1.827615248864607 4.705368611077838
Ar 2.6882245085623557 4.184932458963592 4.047806663086736
Ar 4.850311686024344 3.195647993606708 0.0361271190586233
Ar 0.2820678864708512 4.333787595284115 4.820810099827079
Ar 3.5563007616098505 3.780452969627954 2.4164652712104036
Ar 3.7890387263911096 4.318742705373644 0.7860295699054931
Ar 4.252222657500787 3.1766389529157206 2.0985870667303153
Ar 4.047737139741364 3.321151482108717 1.0733072133939803
Ar 4.099558841131241 0.8024291840832387 3.0932085903239614
Ar 4.512640312346881 4.011949861903381 2.9607123559074817
Ar 4.868976491542681 0.03922013031021222 1.2966942959644145
108
step=14400 time=72.0000 Lattice="5.038789 0 0 0 5.038789 0 0 0 5.038789" Properties=species:S:1:pos:R:3 pbc="T T T"
Ar 4.796960915549693 4.983341655329477 2.508687856151284
Ar 0.12396788185479979 2.931187265299979 1.421178674533957
Ar 2.625441038460187 1.6389069784087802 4.785150759004411
Ar 1.5517123170216987 4.2723257749668075 4.467301001494897
Ar 3.0179490199493677 0.6999530921156739 1.8189670004220524
Ar 1.7245017393038904 2.8752787899036774 2.9114836677739038
Ar 1.0864020995211674 3.3064539030236575 4.6726743183291815
Ar 0.28642339673990347 0.15914702518807927 4.560212167113815
Ar 4.097755011333974 1.4473551325809386 0.5448595973781295
Ar 4.065740456598875 4.599780457300989 3.278443472509664
Ar 3.4814405299276845 2.410668586840037 0.7709671137878139
Ar 1.1533844113280913 0.31650175223679006 3.9376617706309593
Ar 0.5336443076032423 1.3047276270355497 3.902522528756735
Ar 0.7979102683163948 1.3752742402016642 5.022456816628506
Ar 1.8853468730347673 0.6807360663585574 1.0691766255945334
Ar 0.8452590594926672 2.5458143494646532 3.658031009908183
Ar 4.135773426832137 1.9010069697711751 2.6947296281681394
Ar 3.040360696874925 2.6400038518018523 2.843908400063183
Ar 3.1545467912399197 1.9067409107750979 1.8563468098816234
Ar 0.04055103756149476 1.9969570401881203 2.173991191572481
Ar 0.9599313380053592 0.019285887732446168 2.944658189347289
Ar 4.87506742299958 1.0221802660220134 4.731894771775574
Ar 1.3195095087300754 1.1132929332821562 3.0909437951404177
Ar 0.9886465421400532 2.088666872636211 2.7338285232091004
Ar 4.795222145388967 2.2079587210554807 3.4037939158852066
Ar 2.879119914313691 4.890194449980278 4.197993319860075
Ar 0.013971324284727606 2.524068913013024 4.375673612830045
Ar 1.613331418810558 0.1766666511392554 2.0451025561710834
Ar 1.0148638176804976 4.834981210233653 1.2895975523550678
Ar 0.22078469940680615 3.4622363475193763 3.7816919797713453
Ar 1.0602104807717265 2.9047947315435168 1.9325430838430149
Ar 2.013706784852448 2.4700063602036098 1.9196307624012083
Ar 2.201004542221208 1.8998037482620909 2.752954329826214
Ar 4.080461560386538 0.3702046334307722 4.161988696014565
Ar 1.4553410719340125 2.2009190567607235 4.684741578520718
Ar 1.2863901368331185 4.056340053526932 0.4079954517310083
Ar 1.1987455546039276 3.1682813258259874 0.7765804947059124
Ar 3.7278634628863196 0.48736264537442703 1.0706879669567095
Ar 1.264653345274547 0.1591203097458842 0.05791931061094418
Ar 0.35601348394885135 4.568144732841995 3.6107310625845064
Ar 2.7603859821682284 1.0870670843869454 0.8233897724538456
Ar 0.42575037537156835 0.5224542811607504 1.8693850115458983
Ar 2.302165118656055 3.9691286456131194 3.510314465225974
Ar 3.353054034905046 4.639525234010753 5.035072194030827
Ar 1.8313808877324047 3.0799248845941456 4.01355093750023
Ar 3.2703797237366663 0.4273872234147381 3.3468804760307833
Ar 1.6847376232037472 1.0930766750342866 4.4004607051034235
Ar 2.7061691183837864 4.702380357619867 2.518699160084044
Ar 0.5039317879399429 4.382458578219734 2.3188990734685384
Ar 1.832043067833471 4.235877108485506 1.3981743361867922
Ar 2.701266813662384 5.02411638319798 1.1441926806936016
Ar 4.855394138535158 0.7738455084855373 0.9124728669520483
Ar 1.6843815388045966 1.45748490081226 0.377638937334257
Ar 2.3479043774234327 1.0036411175074038 3.699990582925915
Ar 1.0388474412496156 1.3290769321191536 2.062383067400883
Ar 4.1167609635114895 2.911015706089796 3.275464170162669
Ar 1.0530893135583257 3.7899517291566074 3.260170144003149
Ar 0.3251130679369595 3.015841949035165 2.7420268713198035
Ar 2.470425840812178 2.1067465550331907 0.8755757524851051
Ar 2.3864356860385625 0.8329696584134154 2.6501169230442696
Ar 3.0548517418246353 4.063085498754528 1.623711786153661
Ar 4.390393412932909 3.8914717045100695 0.2533421678992672
Ar 2.382528177552197 4.2010509802783025 0.4064331239842642
Ar 2.2973061933915173 0.32302426098826786 4.837360120173825
Ar 0.8861305564336935 0.8311919336082462 0.8873854672218187
Ar 2.92006647051955 2.7294878454468043 4.746921688296812
Ar 3.202863578425027 3.405303755775928 3.6221242726708174
Ar 0.0708926035359993 1.8011693045160864 1.1855992335556358
Ar 4.103053103945891 4.077994881326958 4.0933354260402215
Ar 0.5323572004521577 2.2758070920404703 0.3945094005795918
Ar 2.307984401625654 3.264692226302748 1.1225060026200786
Ar 3.343924391654098 3.123939348530828 1.868365162914823
Ar 2.6094587536440343 2.1954576080609276 3.9451368119371524
Ar 4.182669385128493 2.181226573764926 1.6365813812633667
Ar 4.307214499969118 0.08416636626447813 0.15896735385848076
Ar 4.106178069003518 2.9813764056989784 4.733712668446128
Ar 3.341904162175595 0.6921812079063865 0.0939545856861057
Ar 4.324930424932723 1.3572530270103613 3.8094108145028223
Ar 3.407777877680755 1.148735809384282 4.1430829719306494
Ar 3.554730405211955 2.1346498325509518 3.7098221598090877
Ar 2.0891126003741807 0.019235666715441024 3.409559712070511
Ar 5.005939518839948 0.49439995033951584 3.6015470634327365
Ar 1.5843605195076609 4.2542522846936714 2.4548811943916298
Ar 4.457028982594028 0.9147448338806365 1.8345046464216592
Ar 2.107167355020046 1.4346413336691377 1.7794312142717275
Ar 2.4971457168608238 3.5402495056341223 2.4304405927387176
Ar 2.0159465541728165 3.2042905616900503 0.09899228236868189
Ar 3.2327232741365957 1.414454260581772 3.060473736248187
Ar 0.104334142729583 3.9813669054722323 1.2050510550398739
Ar 0.09669984948120412 1.1388567039504094 2.7606864262775446
Ar 3.811344144643536 4.942451014361055 2.03760690380822
Ar 4.246499612574755 4.0054800671007635 1.997738174903544
Ar 1.6753476131280163 1.920453583096945 3.6183869610917694
Ar 0.2559890062720893 5.004970504817305 0.5027461230126943
Ar 3.4699369103047917 3.4776540790131834 0.4904503231092907
Ar 4.5428849682890124 2.4586332276100826 0.4549784409097923
Ar 1.222872235238702 1.9516537278973158 1.2653172413832159
Ar 3.726225226457123 1.9311193251722287 4.766161037600585
Ar 2.9570639988497613 3.8419886871858004 4.468197391623864
Ar 0.2283461980462734 3.377465700211798 0.3604154044757363
Ar 0.325610222336619 4.084222321132523 4.579874364312933
Ar 3.5012721103997073 3.8367080623451946 2.709894153571999
Ar 3.863287621590903 4.345759409625181 1.0630309067633694
Ar 4.375437212648181 2.9649037778177947 2.2561167649124925
Ar 4.267149940052509 3.222441182257747 1.1915196371301096
Ar 4.123231683830387 0.7545666647542674 2.8616981084020283
Ar 4.793246633884859 3.858953979108641 3.0361171249717778
Ar 4.6940598578863035 4.915969615651037 1.4219439279819983
108
step=14600 time=73.0000 Lattice="5.038789 0 0 0 5.038789 0 0 0 5.038789" Properties=species:S:1:pos:R:3 pbc="T T T"
Ar 4.683932506582518 4.812107253067036 2.6111365499262416
Ar 0.2965575010120015 2.8128709477323355 1.5461256527525773
Ar 2.493659932727935 1.64672053555885 4.873171376309597
Ar 1.709848654349587 4.348091115694798 4.381542063059079
Ar 2.818284057000578 0.5761757037993024 1.8010332118561834
Ar 1.8044407393200315 2.8570176078287424 3.1340853392211074
Ar 0.8278780441095424 3.289764260875793 4.494233649446865
Ar 0.015775245362786513 0.31485163651132675 4.537372010197494
Ar 3.879966144731704 1.5727906925866975 0.8304480266618328
Ar 3.7678772178129587 4.790923234798519 3.222732646191436
Ar 3.086497194756561 2.4690845034821503 0.6860480338552212
Ar 0.9034177647597319 0.4110470760806249 4.128096973010745
Ar 0.506571096371412 1.4281219022427183 3.8216565463805154
Ar 0.5606134440316296 1.2763688797089758 4.9504152992563695
Ar 1.8479231222328694 0.20282641346432462 1.2212185855869204
Ar 0.7528819341914399 2.451644804315334 3.5271109564642855
Ar 4.1589699473363835 2.093021872648552 2.7519473317078345
Ar 3.2395111060377606 2.5555651311454612 2.6554813917680224
Ar 3.2143717743809868 1.8312116206989992 1.7804596701655975
Ar 0.19092808058160657 2.18247099616902 2.406216283597453
Ar 1.1471223997724913 4.704299383467741 3.259434764595402
Ar 4.460002099208176 1.426351677999965 4.595114005085973
Ar 1.1190173470891374 0.8387397965413111 3.075882275004348
Ar 1.194405242124154 1.7510068178357006 2.642186137638541
Ar 4.79008821095951 2.7395104955450424 3.304772071601262
Ar 2.6764896776012437 4.702363511944312 3.9902899521340793
Ar 4.748366779486905 2.4425254752013883 4.3399591028358895
Ar 1.8026497210552728 4.844059283796863 2.2642483131567483
Ar 0.9569050788951203 4.755536537563713 1.2568238252224901
Ar 4.916212531975299 3.5037642405048213 4.21517998065624
Ar 1.5102904509082147 2.7911739318964366 2.024661378802932
Ar 2.509114623636936 2.7982725391144196 1.8611741414785972
Ar 2.2456509651807592 1.963930217766527 2.638681077848616
Ar 4.177955637796223 0.535563697217218 3.9602752025094157
Ar 1.236141398553845 2.013341068974162 4.7538527008616605
Ar 1.7810118689150123 4.375320534943031 0.618191649419629
Ar 1.1618266955410657 3.270752471582963 0.9425654576684042
Ar 3.6985213927163674 0.5228255796369244 0.989463548731632
Ar 1.2237622242798931 0.0779973233809601 0.1701186058821326
Ar 0.3202651499408302 4.432900382770829 3.737724104929891
Ar 2.740813318831428 1.030680928262592 0.7284156549776126
Ar 0.634874588678239 0.027269812382980388 2.3528566372816657
Ar 2.135888044911709 4.189309863888599 3.3291116444758586
Ar 3.10115257688041 4.930343025542337 4.920667689760422
Ar 1.9492227374454445 2.4394998973097275 4.089806976473845
Ar 3.0376313942363784 0.5259037921875801 3.1095141427696245
Ar 1.5853283389077408 1.0960029695507314 4.424662532485763
Ar 2.9189783388825217 4.74795985031675 2.398349958653708
Ar 0.4848855231549241 3.966476535414403 1.965900149604544
Ar 1.7030277168471293 3.8910177307028753 1.698348792730773
Ar 2.7659474537440305 4.743853986375083 0.8390048399071912
Ar 4.762738706179321 0.9783953311015776 0.552902858885854
Ar 1.633816890789328 1.2614267674613981 0.6963749654423217
Ar 2.798354247131672 0.8387811259662304 4.218363795316626
Ar 1.4770890541898967 0.819988236065496 1.985471725894731
Ar 3.7784207489723154 3.5079572136968 3.642159556558637
Ar 1.0249340884360711 3.710735828617066 3.5685713378955226
Ar 0.5771205983302262 3.11837678585916 2.645250555087323
Ar 1.794286557765875 2.421817172654004 0.9769204222146146
Ar 2.2143322698426737 0.9004326915921569 2.6793933220550668
Ar 3.256067406677539 4.125073757675007 1.704058813108083
Ar 4.530669582601529 4.021487061927205 0.041194749729163
Ar 2.487881142053563 4.0203372218122375 0.012380386440354971
Ar 2.18598290875104 0.47732540621816527 0.03427828171939003
Ar 0.816459156319171 0.8428966281822805 1.0999258886583785
Ar 2.8759990295280393 2.952591747037204 4.636566767051646
Ar 2.606879185487555 3.463647989405867 3.8324777258917684
Ar 0.006355223787852504 1.6397508916154244 1.395481987744751
Ar 4.27631736114773 4.373954881772428 4.076767818935481
Ar 0.8063945077773093 2.189472889562591 0.6859738015186184
Ar 2.4603528920505715 3.4876757010309194 0.9411331770861197
Ar 3.596328278816956 3.082494340902129 1.7615283940615645
Ar 2.687839074159653 2.0786126316075344 3.5176690487854247
Ar 4.159865217271355 2.2044112221211165 1.6304588852165278
Ar 4.1809928618410845 0.021169916573449483 4.994614823369295
Ar 4.0578712170629725 3.161802503543086 4.750986010428605
Ar 3.5007523748955873 0.8721307179693214 4.935091218975334
Ar 4.5465260429007195 1.5940116903822732 3.5346563354079175
Ar 3.5343511476180076 1.3753788564910745 3.778267160796599
Ar 3.6979357328383373 2.3926431213363584 3.6506991895797256
Ar 1.9018103478018993 0.33108757144817746 3.7252310916595643
Ar 0.09200558407872254 0.43643853674891564 3.4393302146217626
Ar 1.3707435443605542 3.908499540839992 2.6336617327971568
Ar 4.185188567682742 1.1327663543733542 1.873769596681442
Ar 2.214462335775041 1.479414055335049 1.606746277072613
Ar 2.5703966948752655 3.597240568124378 2.5852572650734977
Ar 1.7870580398668299 3.2350964810357343 0.10265300595109876
Ar 3.342194177868979 1.4799125605672052 2.748083166826776
Ar 0.20028186654924446 3.804360027366175 0.8708197251445212
Ar 0.1892563258217522 1.1673871677936758 2.5009931198502224
Ar 3.798540544394467 0.14706589974971637 2.0744184243879076
Ar 4.501098479662965 3.9964796227032724 1.9920624918133893
Ar 1.8526963461462422 1.5251929776529185 3.471397276170625
Ar 0.02681862541673542 4.8555321878548465 0.5743986343012261
Ar 3.366800331828357 3.529557975542132 0.4403580971899824
Ar 4.679896551376518 2.074082959256059 0.38018825197374223
Ar 1.1034999133960504 1.819108097044237 1.6436691630529598
Ar 3.6215602070766972 2.074848710727042 4.823776180803694
Ar 3.404810202466196 3.9043732729747465 4.4863863648741935
Ar 0.17554948756458336 3.086081940928277 0.15030351987498136
Ar 0.5584816711260191 4.294295593119321 4.867780558871407
Ar 3.6510071839500626 3.7745378585662084 2.686903140096431
Ar 4.024087688464144 4.580537394390915 0.8909689294216412
Ar 4.583403224699563 3.0148024022495847 2.1748039895105435
Ar 4.219862430114066 3.037721212227068 0.9203943426238841
Ar 4.118444949281282 0.7733464311108396 2.9144062191252313
Ar 4.831761244054811 3.7607682900984267 3.1770037024767785
Ar 4.857709323048828 0.29924886178276877 1.5402191794113145
108
step=14800 time=74.0000 Lattice="5.038789 0 0 0 5.038789 0 0 0 5.038789" Properties=species:S:1:pos:R:3 pbc="T T T"
Ar 4.5838866233950615 4.560365018230756 2.66641940478138
Ar 0.27205528554448966 3.1902542499806947 1.82244750775158
Ar 2.2318158368291496 1.8075627404526156 4.879707302764596
Ar 1.7169306635403336 4.317694694158822 4.492301062481942
Ar 2.965715514772055 0.5547286573778267 2.2210540677099737
Ar 2.0515036766431236 3.0043937438978747 3.1454187731403733
Ar 1.1308110672606637 3.2295434600145296 4.5048680557245815
Ar 0.35747595245104324 0.3532698368406389 4.667009546285803
Ar 3.6083249390989787 1.5242612976252585 0.6184512055108261
Ar 3.534241579553386 4.7634979686884735 3.213442079910912
Ar 2.778586386273866 2.412649131898261 0.6774243108297215
Ar 1.1844476921550755 0.02585547701519017 4.045503822257834
Ar 0.6633343330141769 1.345580266733823 4.138424565868179
Ar 0.4388587495756721 1.4896365714289614 0.19311299726650966
Ar 1.7781053536356934 0.3773834232626648 1.0443956122123197
Ar 0.7483164155615081 2.5633220999437265 3.7575456946479564
Ar 4.029515048967933 1.9638567817244394 2.608397368309382
Ar 3.3192061865257503 2.661761130032326 2.7121359150917614
Ar 3.0359474681047267 2.251231448617289 1.80954189367467
Ar 0.07770062920222567 2.210314796904659 2.3014724858627806
Ar 0.6466924295178852 4.869337045923512 2.9347558000196075
Ar 4.623416565796145 1.1592336294682186 4.503993247866693
Ar 0.908244235716801 0.9660368611831449 3.1511795563431884
Ar 0.9476704309387111 2.0167102179166116 2.921505990195472
Ar 4.5938185297604175 2.680563743471714 3.272543862344769
Ar 2.994229185391228 4.789831458118651 4.1431403916193466
Ar 4.918760874366143 2.1878359562710084 4.379307663886306
Ar 1.5375623447350841 5.024432209347853 2.4983884516050296
Ar 1.0247740507664989 4.499145919098509 1.2941494557203232
Ar 5.035858397065519 3.3051596556246374 4.040772648123747
Ar 1.3527338249721625 2.693997453556325 2.012792650140907
Ar 2.193037755951646 3.0214428775901463 1.4521649093159705
Ar 2.1643009208053683 2.1463728500944774 2.406182940474041
Ar 3.7675642900848176 0.5285243247704935 3.8488143376265027
Ar 1.2453466166944989 2.1938777294928946 4.994547470808009
Ar 2.0765688534429767 4.5305469474427 0.6195854227614239
Ar 1.1404452700726722 3.4100823446923805 1.3254987568830718
Ar 3.377173155115424 0.6873464650341228 1.1254335629545522
Ar 1.3425669167356957 0.021195065563349467 0.16105624449472208
Ar 0.5676309816832019 4.119309725828817 4.590951029393924
Ar 2.5802274184071687 1.1299471581573268 0.5180841360188083
Ar 0.3261709700988673 0.19568093431471065 2.0578010898527284
Ar 2.198301945115344 4.475603405962768 3.4096119190090963
Ar 3.057598922254066 4.715341021910519 0.33139733249876263
Ar 1.8978272398605647 2.651002224229399 4.151950391467032
Ar 2.8248700566544667 0.43409351151729614 3.2641707765145145
Ar 1.44678715769994 0.9416073051029861 4.705255863435599
Ar 2.4787636586091883 4.5824917817886615 2.44430561912754
Ar 0.5085066136265514 4.14438181150912 2.205115902729121
Ar 2.1295602351350666 4.037241477964847 1.629018365901959
Ar 2.7730648121204737 4.833365679778126 1.5033659964830193
Ar 4.38184881964468 0.6812258619347985 0.47087980948327707
Ar 1.5550061358608835 1.3166009409010833 0.6699424634393695
Ar 2.732781871282729 1.1628962160407332 4.032163211891108
Ar 1.2272409809817844 0.7445638215189153 1.9088804418013463
Ar 3.946407708588956 3.681058621571653 3.610369359796021
Ar 0.9508720391170065 3.9326669394846903 3.642452851998133
Ar 0.9233725268459378 3.1059829134957018 2.814129253234205
Ar 1.465534993957223 2.3129300285941894 1.0195055914824602
Ar 1.9644933981500645 1.1115659352614673 2.547485342669944
Ar 3.2905415180153543 3.905328075452082 1.5466511617476046
Ar 4.644538784131198 3.951106246714843 4.945891297847738
Ar 2.5931445140056617 3.8979270748692674 4.818404659596483
Ar 2.3548556865799095 0.3981812152114735 4.656104461290804
Ar 0.7676819962858871 0.6125652556698696 0.8454247018098359
Ar 2.8754855563829587 2.7566462497347337 4.725352312642485
Ar 2.898402973295521 3.7531333636450013 3.6950586880725815
Ar 0.08678132252565156 1.280269868124711 1.2859367350812623
Ar 0.043482312993178285 4.581023690233849 3.8780960647184064
Ar 0.446432409483449 2.349300677529552 0.961970863682999
Ar 2.6841333995268206 3.5579745471825825 0.767096379064847
Ar 3.7415598922183917 3.0252988195774484 1.5073188987142299
Ar 2.756769739082437 2.1682797355729613 3.6473278745530595
Ar 4.44092874106937 2.1964711469671463 1.502269154329181
Ar 4.311681215969385 0.0357583811705413 4.666938066462205
Ar 4.07206289527987 3.0529337661364346 4.793586792981436
Ar 3.3303526181664123 0.737836735876025 4.8374947342855465
Ar 0.02462230993307535 1.6188020589149876 3.2980966982547417
Ar 3.737820229074418 1.579168416370367 3.524838839264083
Ar 3.871510878277327 2.506402968436164 3.983427191955922
Ar 1.8507205814753904 0.4431598532443833 3.4051553820061615
Ar 4.814183626910085 0.5664908939388915 3.5034781789801115
Ar 1.6735560805327208 3.8148595650167656 2.6520654856898913
Ar 3.7821628663388704 1.349813510967917 1.8115253043481856
Ar 2.5033567262243914 1.321204938339887 1.675212366550628
Ar 2.6665339419570313 3.4298421832734416 2.353829535744129
Ar 1.8550461396252935 2.9708681366362524 0.29349067503822274
Ar 3.0237641547103076 1.4906973564576569 2.692949333312049
Ar 0.31392263289611433 3.729747671038434 0.7674621007824584
Ar 4.824578843072495 1.1276835428952823 2.40734207740426
Ar 3.8351634340669136 4.681056241662885 1.969610753412327
Ar 4.454384439954533 3.9426166315973985 1.5673502264746202
Ar 1.7711648207355033 1.4759628719697084 3.636609808952455
Ar 0.34089214417364705 4.764459872196886 0.4803510102879012
Ar 3.746325139181593 3.729168346949832 0.5240622986008494
Ar 4.57884920397214 2.056257216722663 0.4569548814159266
Ar 0.9239072160089824 1.746142628799164 1.8105335821791706
Ar 3.327885666236105 1.7585154796272704 4.728855241123831
Ar 3.689648040612647 4.103225985598 4.517735597328694
Ar 0.2089010774680389 2.93879903036567 5.033899455308235
Ar 1.1993365989466047 3.884775203474777 0.29733471523498217
Ar 3.6549952663913614 3.8922667878048545 2.62171807525145
Ar 4.245386913841191 4.597861413421869 0.686142166374754
Ar 4.386893355683494 3.078063298053359 2.2571706178257083
Ar 4.603413321317153 3.039556300413041 0.9050719674184774
Ar 4.004565911601085 0.5605195739575294 2.5933472988983235
Ar 4.998654527693223 3.6234712209262048 2.959238771596424
Ar 4.470400230167011 0.3646960888682219 1.5446538848714024
108
step=15000 time=75.0000 Lattice="5.038789 0 0 0 5.038789 0 0 0 5.038789" Properties=species:S:1:pos:R:3 pbc="T T T"
Ar 4.648986450602707 0.21025598632067044 2.322060719835782
Ar 0.5924002527859785 3.0750068639954797 1.9984365037382814
Ar 2.119220969093284 1.784579943037059 0.1977148970050995
Ar 1.7357883942185246 3.8784420269550863 4.33620844166746
Ar 2.909365169883606 0.29139524976039366 2.4139395757940205
Ar 2.1145196078969355 3.049308216671782 3.1886224484701295
Ar 0.6884365850434101 3.5899348316830895 4.076323957609454
Ar 0.31189184631233974 0.49841574376645853 4.81218563945343
Ar 3.2832783580216325 1.5894952856625688 0.7465008027649583
Ar 4.158536018415469 4.430218158419622 3.173121017165614
Ar 2.9607239219910757 2.676320125523059 0.1287065931180766
Ar 0.7089865589691586 0.3186042047834196 3.8613163963207486
Ar 0.5597678090318298 1.299555606996899 4.0390251229861835
Ar 0.4156380726756568 1.52548558602812 0.07783482158683867
Ar 1.698553661814598 0.4445703505592642 1.0145886155252615
Ar 0.6584406211888709 2.3026952633264557 3.891647546551911
Ar 4.108598656415133 2.078946385341636 2.674889568259598
Ar 3.3081274238686604 2.675844785327393 2.8872075938795265
Ar 3.342332369751394 1.8319888685252639 1.9090025209614203
Ar 0.16433997490185606 2.1789428497533097 2.6504677889134025
Ar 0.5069793462412081 0.028522829972781705 2.8327378319265337
Ar 4.644669779858148 1.1153149647846499 4.453780646228285
Ar 0.9653587882913396 1.016077630835527 2.898395224333248
Ar 1.370869772697303 2.043882969798379 3.077168205829412
Ar 4.836338442865854 2.7209100298953364 3.6216127448107676
Ar 2.7762260094713156 4.541071151930791 4.337239551703599
Ar 4.885971447958756 2.2231844391898847 4.671293459841737
Ar 1.5727372789317162 0.14982999701778071 2.4820141603235992
Ar 1.1497556979591164 4.575877868694102 1.0927142711880689
Ar 4.71122554897307 3.517326514631261 4.35207748008304
Ar 1.5717735894029117 2.673541641997525 2.110274692805031
Ar 2.180972670629736 2.1201753076279024 1.2852693901080443
Ar 2.537112060968332 2.1746929071961634 2.4736618620367072
Ar 3.7253993215006367 4.96347225404177 4.040311745175025
Ar 1.128953168783029 2.300478007895217 4.921750807747017
Ar 2.2445486663183316 4.859273004615398 0.38032672418240804
Ar 1.6130011660787285 3.623206839129035 1.3346024727551737
Ar 3.533576131222019 0.6596166155410751 0.8710072200664878
Ar 1.157301963810522 4.957287144731454 0.016615803448522936
Ar 0.3933887031996087 4.320618131504631 4.740400379227634
Ar 2.475763412096396 0.7500043652440156 0.2625547007058111
Ar 0.652186160550811 0.21228108751750213 1.6944901166410524
Ar 2.115994390156054 4.665026071933093 3.3382434745868363
Ar 3.402663295492678 4.619390960045282 0.24659087954363776
Ar 1.788370997175588 2.741045191818262 4.1239560949588325
Ar 2.915591512306004 0.5687165012206051 3.393133386540158
Ar 1.496212790906692 0.981836784685933 4.980896569836545
Ar 2.641285598833403 4.326194862408379 2.345827282745416
Ar 0.7602466616148322 4.247638951825776 2.1621678323648643
Ar 1.9772222864375573 4.535678485204502 1.641025285195128
Ar 2.9212109654147613 4.8543774706868525 1.233730606845719
Ar 4.287862619575242 1.3230511266568608 0.4422198031661851
Ar 1.3555632491031742 1.5480810238455336 0.9038707202015683
Ar 2.473675644105085 0.8829394718560347 4.2359672931939105
Ar 1.209217577375324 1.1274935801940806 1.9032173176161427
Ar 3.9442609591982274 3.2885297148733614 3.451776238194788
Ar 1.0513623675923074 4.313597747146963 3.298562593039058
Ar 1.0409034199135332 3.0753907721243285 2.9708386761480567
Ar 1.2356635339536215 2.637109462271961 0.9415509647309289
Ar 2.102571875994671 1.0334076631685483 2.4111699709505117
Ar 3.3765515755779227 3.7626011719629746 1.5531622698000904
Ar 4.583719339878463 3.7999369779237306 0.35586995358411444
Ar 2.8308693195639223 3.6872823940017683 4.834719056257348
Ar 1.8760669198038915 0.03668607763566743 4.28554151635582
Ar 0.6893299063830111 0.6429610677171042 0.695276015913642
Ar 2.980245910797791 2.8764077529020744 3.898966605903464
Ar 2.90257874862566 3.887643480465165 3.378417957934276
Ar 0.10497150583324955 1.47295026462524 1.141578684768379
Ar 0.11931910277370655 4.374295470428525 3.7516435867642675
Ar 0.08683095061259777 2.5437730094075994 0.965317706880165
Ar 2.6193966717092207 3.828298130340497 0.8108363519763925
Ar 3.2361515854698166 2.741887001689068 1.3015628623721474
Ar 2.7977665117058717 1.8396014030015304 3.822927738662883
Ar 4.209521417449317 2.1603619494088484 1.5417645242509381
Ar 4.372687261105232 0.16840900651354163 4.949771915354659
Ar 3.8969247747183484 2.83103274615243 4.601114588085714
Ar 3.402866210844566 0.5972622564553416 4.875968538815215
Ar 4.408904674229431 1.3455760299953161 3.3657374730938088
Ar 3.5755558505648364 1.070063768336778 4.011406925982307
Ar 3.9770473912441004 2.157895751777814 3.803025000927582
Ar 1.704757463806298 0.6831486361127903 3.537220782919766
Ar 4.749310930137609 0.3153680678900443 3.4770627561492273
Ar 1.66428229192925 3.809312075781832 2.505911886945783
Ar 3.9975046925919333 1.0415982074506607 2.03047107062708
Ar 2.6736775449372665 1.0044215321660976 1.4481206129882147
Ar 2.5614408694657795 3.299550701627002 2.0562544021107865
Ar 1.861081661749441 3.080247879854718 0.12771112336159654
Ar 3.3393782064717015 1.4847811504561788 2.97253398917495
Ar 0.4726700403395677 3.818157045151888 1.0678895586551347
Ar 0.10687582936752432 1.1058029540927323 2.217141314115953
Ar 3.8017442442198037 4.7509464188442365 2.0514348660033406
Ar 4.784297580986023 4.189871624544313 1.8064103854322937
Ar 1.6059737250640873 1.679086862723824 3.9894743283865752
Ar 0.23122313065389505 4.710915489781603 0.6813950167862322
Ar 3.578610997082966 3.4675666374352616 0.5221727367105985
Ar 4.16821669363594 2.470434522214177 0.533284095432864
Ar 0.7597925827841854 2.0529444347243584 1.7271377598701798
Ar 3.563930202781306 1.775289685100257 4.83334212485393
Ar 3.6571926038275158 3.9954390681445715 4.38520702873927
Ar 0.5198366195930724 3.1814235504876485 0.26788163503361967
Ar 1.2123700366109795 3.9122038752874477 0.2955314611761585
Ar 3.6595345341868475 3.7282088141708307 2.552125518515958
Ar 4.007340167969809 4.533832001726562 1.0780239121893074
Ar 4.520746997215193 3.016541125730054 2.257445879452436
Ar 4.345513433808142 3.3107682576171538 1.243705297641161
Ar 3.827194621134883 0.4877899736468243 2.9138208685191094
Ar 0.1254748477565553 3.66771231014063 2.8964998145587084
Ar 4.627806080833133 0.6113479379778954 1.261129877153077
108
step=15200 time=76.0000 Lattice="5.038789 0 0 0 5.038789 0 0 0 5.038789" Properties=species:S:1:pos:R:3 pbc="T T T"
Ar 4.897186690921944 4.894183934202358 2.313269773732015
Ar 0.8625234482983256 3.061331321554993 2.137188270304708
Ar 2.4088813150944173 1.6299856946664695 0.1377459241322823
Ar 2.079577043944304 3.819502469885603 4.118739953530736
Ar 2.6363635276261754 0.27552256246291107 2.258102825969758
Ar 2.3617538326958907 3.1839854580593476 3.240828118999846
Ar 1.0948531259840149 3.9844621572365924 4.324213972031105
Ar 4.5072465733672225 0.518313343989546 4.9844433358958184
Ar 3.423494002813471 1.646512103986087 1.2284151769206781
Ar 4.009645369008483 4.477318540165034 3.0439528452368725
Ar 2.9328033753341898 2.6662638143524133 0.07394954498556705
Ar 0.5621586618117249 0.34674496806786587 4.343774895236131
Ar 0.44367048207309373 1.3123072606140778 4.80588684565852
Ar 4.8718740853415925 2.1684171097312097 0.11281962653045803
Ar 1.758230156396498 0.5398334505173545 0.7975593639888847
Ar 0.8436404997589108 2.3276950206746365 3.8627082305072373
Ar 3.967792691582019 1.7120652579979008 2.6701615628072233
Ar 3.4202694213648477 2.5904108441404 2.814653240777389
Ar 3.7593989628390743 2.4972808782295375 1.85782716999075
Ar 0.5573512340364316 2.1563871439467635 2.710637101156076
Ar 0.3093895411854556 0.435330126361216 3.082784491371416
Ar 4.269795726560804 1.4131658164235263 4.357239960107747
Ar 0.9147588909423433 1.2117633903388807 3.6293927220299964
Ar 1.6660392690930155 2.3102139118362377 3.0013082358385974
Ar 4.517100936556915 2.6464693437640108 3.035338794129439
Ar 2.6417470396081324 4.779487642687988 4.1085201890303
Ar 4.874348086704435 2.254671031193299 4.0026328706651055
Ar 1.4067128320230546 0.28700211703694095 2.7895694872336207
Ar 0.8956129009949294 4.665410899098321 1.2073694635283123
Ar 0.13192859577719374 3.262939369050831 3.9307545477152317
Ar 1.8086576398299143 2.8570106016867483 1.7994357257896039
Ar 2.119635520387977 1.9241334486895296 1.2037529894373526
Ar 2.587303491303013 2.1943753159101025 2.2161318054287715
Ar 3.776833742871397 4.717356586900153 3.9969810627162117
Ar 0.8919726558035398 2.251440304822111 4.940381883852463
Ar 2.050023603353192 4.444473596171553 0.7134216387958723
Ar 1.5324574995968057 3.7109579082121527 1.4259181708511899
Ar 3.6430151215582542 0.5121704891905663 0.5592346355502805
Ar 1.097274247578492 4.815045437187401 0.04065421064424859
Ar 0.18010485450755342 4.409364612675163 4.850616090342192
Ar 2.653204750566355 0.5656861877255811 0.032036438913296245
Ar 0.5907818477509588 0.48476219289513695 1.7284057181836534
Ar 2.2618720942651023 4.4877017867895335 3.184362027067631
Ar 3.0149531979634276 4.5608754428694285 0.22412753659314955
Ar 1.5877247169109898 2.959488634116926 4.285314079980977
Ar 2.9071098695568884 0.3401614868906391 3.3499119850083474
Ar 1.549098143995741 1.0392959255173515 4.7304492912361225
Ar 2.544983269690861 4.174457190243096 2.218117520950182
Ar 0.8907251329899534 4.533840706850498 2.224313013578035
Ar 1.793286452323847 4.851665622384303 1.5706287025180068
Ar 2.919393101554785 4.892049249968275 1.312161313287507
Ar 4.417112146368846 1.3410514065679295 0.563252141786158
Ar 1.2861597747133726 1.5397259324782062 0.6648982358554484
Ar 2.775659417275829 1.3160231185240119 4.161077866103479
Ar 1.5743608659705786 0.7125102917016065 1.8288093298173866
Ar 4.046286765477995 3.4597224719236963 3.654194150079957
Ar 1.0647160899171368 4.358555309762695 3.2685510284532406
Ar 1.1270282629259882 3.276860443397737 3.37228250221531
Ar 1.0305011882568074 2.6120360672063785 1.0359514254783255
Ar 2.047135826761056 1.2647517769067564 2.6171347724890826
Ar 3.654210779766896 3.8137736878170303 1.533295434640047
Ar 4.3309022934142165 3.6606715248913138 4.720623781574832
Ar 2.4245402457884593 3.601169045473551 4.9972843207161874
Ar 1.6448972581476282 5.013675001629537 4.138068241879138
Ar 0.6083671645070149 0.7352813819676259 0.5898205610275306
Ar 3.0933286581012354 2.8772229318893734 4.133356838022677
Ar 3.16903971844287 3.9355886371890207 3.345957468553089
Ar 0.44669847002431284 1.4885725701088497 1.3772580741098506
Ar 4.83790220691688 4.381979920411957 3.801676245822316
Ar 0.055510536564291876 2.5908626691796286 0.9926213445406702
Ar 2.572495397714062 3.6719357137499946 1.222832585596462
Ar 2.9069847336644816 2.6630854165926734 1.2023534614030595
Ar 2.68752814840952 2.2176287973849726 3.476215853754578
Ar 4.443874702755165 1.8461245378420876 1.5346347278188583
Ar 4.134687764023515 4.575830769307016 5.02302121417331
Ar 3.9719264209247087 2.6167283461698743 4.8118622128744235
Ar 3.5346539570371807 0.5387624090057165 4.518326344529639
Ar 4.876247812364561 1.4661142988069038 3.3570464278091863
Ar 3.6296040781066674 1.1748844936446472 3.5423356892561078
Ar 3.865120596905663 2.2331384819073854 3.8907254123155943
Ar 1.8952886652557888 0.8761482943313196 3.6101276069758175
Ar 4.522037822660573 0.49148810059490383 3.9225866808390926
Ar 1.6600032288393016 3.71597612590989 2.5897611113856884
Ar 3.876603105545266 0.6969637083958397 1.8103321722654
Ar 2.770496139699931 0.817767372369616 1.2722576843170765
Ar 2.7400189047499435 3.1795631081828177 2.1467810868863815
Ar 1.9347452602377828 2.732665723459827 0.4478353927248564
Ar 3.117067272453924 1.3333471767200682 2.2821229617555976
Ar 0.4626745787526926 3.506862800207676 1.177703460570032
Ar 5.017898661560779 1.1634803308139 2.2525666688819284
Ar 3.553322987501077 4.715865444247892 2.1135095075917416
Ar 4.877182336447213 3.9192549406329906 1.8449421855034571
Ar 1.8166084908666316 1.9234609344400242 4.134792190247917
Ar 4.962649678178474 4.76653487263178 0.6525082071872338
Ar 3.5111359691314026 3.6934372601138836 0.48624464180782173
Ar 3.970551188383699 2.5850077175826245 0.758577862560073
Ar 1.2147843662995754 1.618072220071783 2.137393638196337
Ar 3.4237523559473986 1.5770499480644835 0.05608526543829851
Ar 3.2723383865266653 3.8696535757792767 4.448263397796695
Ar 0.3818967379612801 3.172703314581367 5.017714094458848
Ar 1.2760164102575862 3.711401194587458 0.4186580300812546
Ar 3.858858849155341 3.458126833225405 2.604045557623763
Ar 4.0218591637813885 4.723893837615156 1.1240452251931272
Ar 4.842955748437261 2.77688410057501 2.033688043167663
Ar 4.5040062390256494 3.5046525228510093 0.883482784973857
Ar 4.277798312233657 0.6526998769553273 2.7973255394116583
Ar 4.988941446083995 3.543364180994255 2.862819394593107
Ar 4.775415865089859 0.6602774729183707 1.2448005380691638
108
step=15400 time=77.0000 Lattice="5.038789 0 0 0 5.038789 0 0 0 5.038789" Properties=species:S:1:pos:R:3 pbc="T T T"
Ar 4.530064528791781 0.139527975155424 1.8235999134165668
Ar 0.8340100487281521 3.6268785688829563 2.3253730996435453
Ar 2.4639903383796566 1.5592038494828289 0.6462286629555538
Ar 1.8999973878191574 3.9761213837324867 3.5356180988303056
Ar 2.4103682195294867 0.37666572462769415 1.9366833689209662
Ar 2.280116702991976 3.1102297493543585 3.152799523355575
Ar 1.068536889301441 4.123771472168247 4.388353386487051
Ar 4.703993954574035 0.7140045663608903 4.7872875188855515
Ar 4.210421783481652 1.2350082062627454 1.6349230487830126
Ar 4.138032036350166 4.763686834652134 2.70905982042493
Ar 2.885571861630698 2.684136359022837 0.01485429169901513
Ar 0.25711410288417885 0.24163573880002617 4.064066908855087
Ar 0.5759071239486329 1.241687427417439 4.608706359135544
Ar 0.04229410893712146 2.12127558639977 4.996273757369866
Ar 1.6982331629902345 0.5292136215118626 0.8468481140339584
Ar 1.2046961131985636 2.143037489172559 4.010185672930485
Ar 3.9421286089615966 1.7990145533234272 2.989220728115044
Ar 3.273357000653983 2.887681340922741 3.2516765558777165
Ar 3.450926058878085 2.4196104896851107 2.246859248965436
Ar 0.5693953488667258 2.0432962962254937 3.1184773248512436
Ar 0.10068310750332671 0.08924917227111404 3.049516042353963
Ar 4.224756204672548 1.650239820081885 4.657848848851713
Ar 1.1249997131905924 1.0776234887914153 3.6280210766259957
Ar 1.6329357198455814 1.7940261601210377 2.912960136303411
Ar 4.4734155135404015 2.6501542729099627 3.0083306348701995
Ar 2.5506148517958698 4.674145815319914 4.321846496029204
Ar 4.992004272071555 2.499852958398118 4.033615692446903
Ar 1.123680790427343 0.32804549641960284 2.6626686117511618
Ar 0.8400734467325125 4.633320520620679 0.9660923517095918
Ar 0.44496240352387706 3.4769047644995177 3.909210551576968
Ar 1.9942876756695933 2.9904254453905725 1.9542843380422714
Ar 1.5934605461459248 2.172291845258821 1.271535647844501
Ar 2.3027758930135707 1.989838653409477 2.0252201036416917
Ar 3.744433230263365 4.363564037610744 3.8211073262319415
Ar 0.8590677238978092 2.786670874665508 4.760721971738689
Ar 2.0777865864337 4.451707537307373 0.7626206250205306
Ar 1.5571125368989618 3.8270143637407084 1.419430673544987
Ar 3.626582335522734 0.8485678505633258 0.3708849168906649
Ar 1.7223397507748297 4.844029212063092 4.952298432653932
Ar 0.24686677716772837 4.574543622551788 4.822739659115587
Ar 2.6582102669343457 0.3865143193393805 0.020063395106722285
Ar 0.5252604016806521 0.462131063848023 1.6286140475346045
Ar 2.0755624087605353 4.882495697217228 2.991474890542791
Ar 3.0124092145175743 4.256212992414863 0.3565674238586283
Ar 1.7282173695666696 3.129429789982448 4.168515463046247
Ar 3.2977963853079846 0.14426019365327933 3.3160864389846156
Ar 1.6921219190763725 0.8778256238913918 4.823910143097902
Ar 2.5218115676459543 4.428740249789688 1.7147298873895744
Ar 0.4855174164357776 4.572229818892565 2.0517574577185536
Ar 1.4845619033084407 4.856490415617444 1.7498739726621402
Ar 2.838944417725965 0.08999239406570257 1.0262986897762532
Ar 4.670759116444275 1.553975299320041 0.7808915417854718
Ar 1.1098316574789953 1.6843574816416362 0.3726994343385489
Ar 3.005485622922654 1.327525038349738 4.796218161028537
Ar 1.5959366887004205 1.0727601112355203 1.675772483879706
Ar 4.4437016962205105 3.404428204591138 3.7706917888146805
Ar 0.9416997448507849 4.379350705463211 3.204207767215212
Ar 1.0981948019180645 3.048897462665537 3.206940874922651
Ar 1.159562357184926 2.987647089678091 0.7340014147985943
Ar 2.3691590134222076 0.9826500369234082 2.861146733380651
Ar 3.7171507747216013 3.4026688192435888 1.5486140345747563
Ar 3.880884447748783 3.6879528189059005 4.6805478928069135
Ar 2.104701194393195 3.518701308385741 0.026883615873712095
Ar 1.4100342340429168 5.033062190518338 3.996980166372049
Ar 0.7455539881093743 0.42249426961379216 0.301531619451813
Ar 2.6370453433699543 2.4609975403311375 4.0163662360069505
Ar 2.9627950311538096 4.067536124417504 3.02174750388152
Ar 0.5677719819795285 1.4714816023531743 1.2855338063652573
Ar 4.773643589588365 4.35355325591732 3.9423111352985973
Ar 0.17045974123290053 2.527758828379518 0.9870922113695699
Ar 2.545990057654393 3.4875449684996975 1.2575749938455512
Ar 2.8839077475937915 2.4731030944467007 1.083168290256287
Ar 3.0094368432861316 1.7816574229706021 3.312859863593154
Ar 4.778523888358888 1.8339565939900102 2.349656690108377
Ar 4.287371653557698 4.75493267386706 5.0162741379632125
Ar 4.201797154027481 2.6965939311738785 0.11789375542640436
Ar 3.49076342920844 0.19000971687543072 4.526571582949184
Ar 4.725984120505882 1.399441097349179 3.666423000269028
Ar 3.5160823041863 1.0341559928760924 3.9250470899886247
Ar 3.781547944750541 2.330900154330046 4.060266321645815
Ar 2.345037423146708 0.5460627033470958 3.919139210493218
Ar 4.239167003266868 0.25915963691293326 3.8530133938702202
Ar 1.8249363202589732 4.035968164237383 2.4737333008614253
Ar 3.4925260866016146 0.29846889984045416 1.8650189397269614
Ar 3.1750798124583417 1.524727429791245 1.4650030513456138
Ar 2.918153876664396 3.356395565791628 2.313837933807718
Ar 1.961616970457035 2.255069651594454 4.755801099692152
Ar 3.332522378185026 1.074273513458593 2.529204623155537
Ar 0.46715801361267545 3.611247807590376 1.2963100555929208
Ar 0.8616403880972416 1.253778705401755 2.4727945799840034
Ar 3.50260366891141 4.303191377275013 2.113944162357846
Ar 4.569473883269931 4.031348743487765 1.7799657645595148
Ar 2.09581855553702 1.5179887485114707 3.848608728389675
Ar 4.899661070329621 4.349321653738776 0.7951117983324202
Ar 3.4323380114393243 3.33905159903165 0.5969965065327522
Ar 4.065622108618871 2.437899993437408 1.3370604968764295
Ar 0.9865880105395137 2.50503053903421 2.0577891170624083
Ar 3.574254747277755 1.908744557065073 0.4864091676588557
Ar 2.9401807259169446 3.609638644286136 4.02263899916572
Ar 4.921974244163044 3.4175112977713846 4.7791633586534
Ar 0.7601453187578094 3.858630899367604 0.3132090663104656
Ar 4.013412130138976 3.6722915827590654 2.8365591356169677
Ar 3.832417628370593 4.491767865398294 0.9674185018253326
Ar 4.959660658703919 2.9255020061725694 2.1421180019836403
Ar 4.529088144999554 3.3675532451477306 0.8507212160851083
Ar 4.372547697853928 0.8257598996501436 2.776812700199852
Ar 4.943648405573459 4.011600386550649 2.926652507304521
Ar 4.576702969548706 0.3922783491341119 0.7864806619603488
108
step=15600 time=78.0000 Lattice="5.038789 0 0 0 5.038789 0 0 0 5.038789" Properties=species:S:1:pos:R:3 pbc="T T T"
Ar 4.648449668203891 5.030581359909672 2.029495467635393
Ar 0.5692191341295599 3.512277339070285 2.423424603279021
Ar 2.4494539564578273 1.6073441754105688 0.5449686645604422
Ar 2.0580138323060844 3.949537394893014 3.3510435553079474
Ar 2.5356107907320187 0.451584106892681 2.0876123256183243
Ar 2.2357953339268217 2.841716574961803 3.0674115721979023
Ar 0.8329903307496566 4.280830514440635 4.157530877717859
Ar 4.487244601064112 0.49948130587803147 4.74019174533886
Ar 4.77931658904467 1.1543838977752952 1.7465127970141157
Ar 4.074062331382128 4.73007125514323 2.8778020370580855
Ar 2.760239992212176 2.662444149469391 0.13447806904793774
Ar 0.4965937231781892 0.4832860760368997 4.212506550038919
Ar 0.9524939393326115 1.556825231358691 4.3320233863620565
Ar 0.3907372383981698 1.8731711308482901 0.24321289362850784
Ar 1.743833539559143 0.45977769038520416 0.9860477631629693
Ar 1.2090288612412845 2.494675395271941 3.825191778099561
Ar 3.952817799290888 1.9524497139100385 3.4245555872234124
Ar 3.427566796557248 2.7744032635010156 3.1050252391884494
Ar 2.913406541969058 2.723632853868176 2.120799183485486
Ar 0.5358733872891418 2.3958030449904246 2.9574113022161304
Ar 0.020464393372299605 0.05532753987673429 3.095504074017852
Ar 4.066725592366809 1.3835237898040673 4.356044464680732
Ar 1.0840141795513938 1.5011773758444236 3.131284930833884
Ar 1.821386241422354 2.0074354291727934 2.5706924950129113
Ar 4.722326008637288 3.0078431117614226 3.278072245936335
Ar 1.8598453810226196 4.391322225113066 4.408208588542073
Ar 0.1708829626911992 2.237081042230887 4.077025108117862
Ar 1.0766649995737272 0.4523052408673057 2.8595402939688754
Ar 0.8735865151672036 4.773357994038456 0.9872988564046784
Ar 0.3472354269687876 3.3603630662245543 4.102788715699874
Ar 1.9773755880431299 3.0921517767148945 1.9007614377069322
Ar 1.560391331811325 1.5933473583613764 1.0606994665920764
Ar 2.5473444416827777 1.5448771493861566 1.645678196075525
Ar 3.909037589548414 4.5295827528299935 3.953814433091363
Ar 0.7915310651099292 2.850864064109093 4.880555732059984
Ar 2.1100521856611576 4.521179561546801 0.5597131285289348
Ar 1.4634700139105292 3.8665055076186277 1.2664457621107317
Ar 3.6491812664701353 0.27475570411389405 0.3356040117548339
Ar 1.1970632561121841 0.12149473616506812 5.000881979180879
Ar 0.30869502089858886 4.262314291160043 0.06748390858544975
Ar 2.3777763741868596 0.350510669058618 4.947793924145802
Ar 0.5537583889776895 0.4443982727793951 1.729090920228961
Ar 2.0977090550369906 4.892439498524891 2.8639281245692865
Ar 3.0943886133524416 4.487692844344818 0.034271174537049906
Ar 1.54148085370098 3.3695175344943764 4.172047695319692
Ar 3.2194858110746782 0.33673979458191766 2.998225743619179
Ar 1.7141801102921461 0.8956286900132812 4.262564185785071
Ar 2.712663471735031 4.514864178600766 1.7998566463256422
Ar 0.5460940270012665 4.584522844857442 2.2082125822691583
Ar 1.5784846421091239 4.919634958618941 1.8186681065660977
Ar 2.877999947555356 0.24756255898715518 0.9921409509896976
Ar 4.512466025294802 1.2427293741095309 0.34490195150459535
Ar 1.4453058602597728 1.1640339001906752 0.18009768958882472
Ar 2.6747111985545593 1.400375722541302 4.600825095505057
Ar 1.4880875654433214 0.9916839283004859 1.9866163250301954
Ar 4.272201785104399 3.488072239808297 4.108254034106629
Ar 1.0837773962777117 4.400615399712558 3.127044471844927
Ar 1.2597695779851228 3.292800895090145 3.204626784885692
Ar 1.142105596206098 2.9267559997134525 0.8064069702525581
Ar 2.19885258336854 1.0223106045612438 3.047641920855915
Ar 4.0526359311134845 2.951716358911248 2.167335067011143
Ar 3.594269267288912 3.3879266193272466 0.17031211722063475
Ar 2.304112590355396 3.6420247979967098 0.05723315010081048
Ar 1.4390812175437175 0.07736004862952085 3.7604800936664557
Ar 0.5147386108640961 0.7618615971254212 0.7252038687627408
Ar 2.6681903478619162 2.60335406114312 4.00649163448898
Ar 3.0285624605413304 4.30917283834216 3.3589176123430944
Ar 0.5748988470522174 1.7606356438948567 1.2861674551141031
Ar 4.893793027885473 4.590259342944018 4.166091337478833
Ar 0.0946109993335079 2.866723089492402 0.8054712969600379
Ar 2.7247896572638504 3.6914739159208594 1.030454635866091
Ar 2.3359342008384547 2.539436275317353 1.149210462080213
Ar 2.7914712621811595 1.952494164640303 2.902979466282618
Ar 4.4572616303682615 1.922190950248071 2.4527152289086414
Ar 4.265541140555659 4.305952167332097 0.07767032208409964
Ar 4.543078573038695 2.1370439958346887 4.915412471240986
Ar 3.3466969867285807 0.39890204085648445 4.324009634077677
Ar 0.016669444430765908 1.3101012406103743 3.572956170514525
Ar 3.166557855301163 1.2211360015581676 3.571372702320237
Ar 3.695727054773939 2.6282863618242587 4.297576459273258
Ar 2.527654742208068 0.09540552549608715 3.769398156662774
Ar 4.233688243843836 0.5005642450787302 3.678223478564696
Ar 1.6315090316561796 4.046841449364951 2.322798284839303
Ar 3.6777775190824906 0.3369696886117781 2.046523942003753
Ar 3.6916326334833314 1.0935021977978339 1.1813684467552457
Ar 2.8523566941624807 3.733582359790551 2.466249520958187
Ar 1.8670781424182794 2.0524437356103085 4.842184730276549
Ar 3.437495151810779 1.4235877516900766 2.265859062336618
Ar 0.3530102077043459 3.766211689890037 1.4199795700594986
Ar 0.6137994194412502 1.5447524100986856 2.308612504305498
Ar 3.7529398701870433 4.348792366042937 1.932117948030851
Ar 4.688340973556211 3.8175436780732763 2.2246190442767064
Ar 2.0222013518585107 1.8163238095704444 3.8120425913598073
Ar 4.679695434744369 4.412029459748645 1.0525768665668207
Ar 3.4971515164263054 2.492892295467131 1.1381172003031657
Ar 4.464917791342837 2.0286440760256506 1.1546231977387291
Ar 1.0599855373582188 2.508067405267359 1.7778684689212394
Ar 3.496068532095632 1.6735322632060594 0.1936305030466145
Ar 3.0408589607448313 3.633400989837299 4.177224925601256
Ar 4.822298866876695 3.4284121719060057 0.005345621690289834
Ar 1.3340148359967914 3.832301060773783 0.2618593464463861
Ar 3.9890885520962165 3.6844325996937117 3.062867685260282
Ar 3.6049448716039887 4.238133485859024 0.9503190467607656
Ar 0.035609078632461856 2.6580393803740963 1.9113823473114753
Ar 4.253383775182163 3.350007679959091 1.1615095377557436
Ar 4.375204923379867 0.8461654989359956 2.7143141735273932
Ar 0.08768295232397227 4.072926987529229 3.2656371756721194
Ar 4.41667440957023 0.32826055632579915 0.9831327678315319
108
step=15800 time=79.0000 Lattice="5.038789 0 0 0 5.038789 0 0 0 5.038789" Properties=species:S:1:pos:R:3 pbc="T T T"
Ar 4.5805871078541145 4.643300854522911 1.9252642314804467
Ar 0.7083859784244613 3.192964200818606 2.4522021284353754
Ar 2.6015554767841564 1.573052025705066 0.5701976489567911
Ar 2.3282121072418485 3.951658392177324 3.583100144148187
Ar 2.4235312132609295 0.5083533482988719 1.9444195575436276
Ar 2.188344895540583 3.109617184208905 2.8709778914636694
Ar 0.9408640498950926 4.401301740165032 4.233428991361452
Ar 0.2597817900550245 0.5418856554661832 4.772300113478614
Ar 4.473334378177304 0.8036338949772955 1.5549191140408458
Ar 4.256530327640068 4.8916174048323 3.157700415810187
Ar 2.953705672277089 2.4125197415114163 4.817429629688096
Ar 0.9432505476497867 0.42134866934630055 3.9370715571643977
Ar 0.6870422118627606 1.7573678835565825 4.236560597605197
Ar 0.6939842556889244 2.118798087067309 0.24168633350676122
Ar 1.75357882077992 0.6224742214201676 0.9368331792708862
Ar 1.4570618790829772 2.4907302353179 3.9559166118419093
Ar 3.9709617647086195 2.029610387877639 3.1425888107399844
Ar 3.2603465979030095 3.458807579762132 3.5201660019411096
Ar 2.7419679173750158 2.400902859202546 1.983138476197034
Ar 0.5213357040449407 2.2675634510616622 3.1827117424788542
Ar 0.3812443848032523 0.06778233334444325 2.736306420675399
Ar 3.922942545651488 1.7159751293885477 4.273235209672485
Ar 1.3252207084876737 1.560306980931603 3.2215547067832064
Ar 1.8020374302693323 1.96062642093498 2.3578645509942557
Ar 4.510155531800449 3.0027745584033423 3.4128406601385777
Ar 1.970436477506675 4.148866983527631 4.621107181217492
Ar 4.728309373990214 2.1432722547412983 4.00971121094644
Ar 1.4617257093833667 0.4709723974796921 2.7481542807919124
Ar 1.1021082772283852 4.86973078862909 0.926036567851167
Ar 0.10502729179341 3.7985853247856105 3.9726541425449318
Ar 1.5252981711240452 2.859524588578647 1.921163264888058
Ar 1.5438430355339932 1.8411606829124014 1.2107074529124433
Ar 2.422906194264285 1.4216293745708317 1.5101308285807922
Ar 3.9155318805167956 4.910873810908221 4.382524770897447
Ar 0.5389431596099377 2.799965239823948 4.404347216476277
Ar 2.113138952458533 4.586508526574303 0.525630331685191
Ar 1.4742347539538285 3.8587473720406265 1.2698271858243095
Ar 3.9018784818449506 0.04207809843488972 0.7834321274093149
Ar 1.2427421195393085 0.036679894283966875 4.984129259306101
Ar 4.98157953812243 4.476790387528383 4.939528734298748
Ar 2.2595775339399347 0.5765726659797291 5.0335772936933445
Ar 0.39549543290081657 0.2641803376896386 1.712465600775822
Ar 2.361220542159638 5.007212468452328 2.8541045117178134
Ar 3.218229255640747 4.788695630088001 0.12886394081856695
Ar 1.530989793575233 3.1843477644235536 4.869633678671525
Ar 3.3748133774960327 0.32231507245048174 2.778857206596673
Ar 1.9697375291088435 1.075626238386118 4.0250675117318275
Ar 2.540934611051688 4.482593205104566 1.468158364602395
Ar 0.5984030347995289 4.2146605342495045 2.030651377659355
Ar 1.5030346040713367 4.876237987449528 1.9064064807151102
Ar 2.7554692405752697 0.42263114852074696 0.9430734486933348
Ar 4.383251945570436 0.9733775262449363 0.4493878290330763
Ar 1.3144633050380996 1.168052399983704 4.967585702051753
Ar 2.7816827558376165 1.3145843324031037 4.578196917466442
Ar 1.4102279292099753 1.1013613568770244 1.9049552134458454
Ar 4.197377582031071 4.0642678373157946 3.9055905115760177
Ar 1.129530014119972 4.476333474706701 3.1919727689768953
Ar 1.4021490249731703 3.4861709918349804 3.5121425705837517
Ar 1.0897984522280266 2.882721808876709 0.955301285030065
Ar 2.401326768100657 1.2057565495674563 2.873579958733415
Ar 3.8020364361306225 2.877098665311356 2.6452638674799798
Ar 3.844657722810394 3.030147703060057 0.21115139156261387
Ar 2.4957677497177007 3.3399952671797686 0.3140321260015348
Ar 1.8998055104755913 0.027966261061851346 3.77250665565868
Ar 0.5148421843007529 1.0039837118294412 0.6399809510810245
Ar 2.3798065589599258 3.0386790251102624 4.201336050518493
Ar 3.22305393988948 4.547522355860456 3.400385956780172
Ar 0.0011568316266489433 1.6537398058839352 1.344635470694455
Ar 5.033611861880022 4.907605737640061 3.8036507577532834
Ar 4.9698855639735955 2.663165508443456 0.7690988456405884
Ar 2.606932165800263 3.3877639355170137 1.4345646894207877
Ar 2.2497024334736935 2.504562461433528 0.8386391904975609
Ar 2.9925111730159983 2.3888655498470523 3.035217836859662
Ar 4.540814127939018 1.6740247087257756 2.3303660248800258
Ar 4.015715969572851 4.027079289331855 4.978638802749527
Ar 4.607688445882403 2.0582543171672834 4.986879220586999
Ar 3.3962375924539545 0.7810165822605418 0.09493878927267066
Ar 0.222746478590222 1.078803638107694 3.514415281342708
Ar 3.2917151253266335 1.1599302721798561 3.622535329013215
Ar 3.863058493116936 2.796110245782577 4.223347394888865
Ar 2.8378007325329553 0.23710566264521393 4.198105501141266
Ar 4.230374421666558 0.727369982917258 3.776020509818065
Ar 1.6183692352658121 3.917703733375363 2.4480989590975697
Ar 3.364173994183948 5.006252513324128 1.77105025092943
Ar 3.494709250678301 1.1381547786041615 1.150140975886551
Ar 2.797747161104461 3.8122212780612577 2.5234580205746626
Ar 1.9410984436181369 2.085926726322206 4.916883799318838
Ar 3.4011019248746734 1.5384387904549948 2.2598683315831978
Ar 0.36237524253090475 3.632732043679349 1.2053250292274673
Ar 0.4894477573767394 1.2439503320184218 2.404186210702801
Ar 3.57173874194145 3.8941654250825692 1.6844405755043292
Ar 4.703051584557587 3.5443645600779674 2.053264628014454
Ar 2.463765306896939 2.0210707866238415 3.8708874766237376
Ar 4.454297570335906 4.056971234420948 1.0166590283328658
Ar 3.2802833624063283 2.5588616465212364 1.0728364781204662
Ar 3.9432871335882944 2.048037838745399 1.5337107560461165
Ar 0.7854279412773888 2.0603878651994174 1.8389291796978464
Ar 3.673704664354309 1.7905819229014746 0.3624576855014824
Ar 3.1200784923213014 4.075227702703523 4.415695065279286
Ar 4.781617078740036 3.2912916636146443 4.886553204990116
Ar 0.8830290064249352 3.9957997193064343 0.21116869465274024
Ar 3.8945453132447887 3.962698749631698 2.797008920995833
Ar 3.38123636445257 3.789395698443098 0.7191915342925437
Ar 4.914879192948449 2.582524417802014 1.8553820043921183
Ar 4.129455725767041 3.046927514223487 1.2917141016985156
Ar 4.377803344440763 0.7251635684271507 2.715967558181931
Ar 5.001965150846065 4.206283640960907 3.014385041039996
Ar 4.9916702023910595 0.10059987042050106 0.698114544313667
108
step=16000 time=80.0000 Lattice="5.038789 0 0 0 5.038789 0 0 0 5.038789" Properties=species:S:1:pos:R:3 pbc="T T T"
Ar 4.651332881483877 4.890978942606962 2.292683861664318
Ar 0.66219927153757 3.251897179550613 2.5521785604698364
Ar 2.325642763847627 1.3878356724231278 0.7914541620478448
Ar 2.2900852530243885 3.8560842885555644 3.427285550531912
Ar 2.483176223939587 0.4999320924846021 1.908362831216471
Ar 1.5850554906128709 3.03169954313261 3.2075069958627846
Ar 0.6157134875801865 4.307585704738427 4.354498691084921
Ar 0.04756059261970868 0.7797511649444624 4.580298200469135
Ar 4.269958639810548 0.41730182598958415 1.3333263677620215
Ar 3.9874110385451917 5.011899617927091 3.397182533512386
Ar 3.4019503729253184 2.7281950822751724 4.597433672111905
Ar 1.0929901955337549 0.32280344892769725 3.9550274953542304
Ar 0.8528518791013782 1.3556755135415546 4.246569842250033
Ar 1.1766916258359723 1.9789464912207952 0.29395140201110515
Ar 1.4872066331274931 0.3372517298457353 0.9954114416852682
Ar 1.2741624260242863 2.2242424058726415 3.8393739917044116
Ar 4.096024454373615 1.8876431481913885 3.2031583860040524
Ar 3.250496655328295 2.963871327173808 3.1892771993028437
Ar 2.4987510720490853 2.675256972343794 1.9035736999998496
Ar 0.7379105017842417 2.0943996695343254 2.9595699411638474
Ar 0.565914250624135 0.10536321235133478 2.7954404476691677
Ar 4.117954077970595 1.7909845395050719 4.500878083601101
Ar 1.2960930168142055 1.2022648065551318 3.3080703287029025
Ar 1.649925920407543 2.1670976282613674 2.529829662237897
Ar 4.841406183140567 2.6870213660601237 2.8973057412018894
Ar 1.89264370652951 4.18227243772132 4.651663151753609
Ar 0.02945061600201865 2.0983381815287543 3.8567671216670947
Ar 1.7554376831027068 0.2653092328500733 3.006688019620054
Ar 0.47101433878161847 4.431755770651274 0.7881561245425931
Ar 0.43675281273636274 3.0977917450852654 3.5797364553636264
Ar 1.59702440562997 3.2242272020726572 1.8812000014058958
Ar 0.6404594538690435 1.3979210830152105 1.3311978504414563
Ar 1.5597311526990243 1.7645940980155577 1.4649071421831672
Ar 4.104672216824699 0.11574285595137142 4.403646581170607
Ar 0.6090418048243653 2.880598659534656 4.7534590562188
Ar 2.1950111521030067 4.446521516848904 0.6794574883555188
Ar 1.3775370701023322 4.203516923369866 1.2092890251055477
Ar 3.9666478680855546 4.892822450087464 0.48008102408193226
Ar 1.0979992794596676 5.0028988834754715 0.054530676202251424
Ar 4.815836159408841 4.553745202462034 4.9745761764044465
Ar 2.403550728107086 0.17122620567141283 4.791485586739255
Ar 0.5222437063875565 0.26089077634220714 1.3809973857409843
Ar 2.6448127623621036 4.851488420225682 2.7837246727020424
Ar 3.1700543143047364 4.489888177009088 4.804762749815811
Ar 1.7248752845071795 3.1343325544206437 0.07067837365783061
Ar 3.3756953960030507 0.7897799720301778 3.1080744536045697
Ar 2.1756129845603973 0.8418451192854832 3.754832823851589
Ar 2.7400743837260793 4.482119118670177 1.691001707037754
Ar 0.5119181514610991 4.330552426666965 2.095855438883728
Ar 1.3946769660100835 0.04869874954956078 2.0289578018073007
Ar 2.7904525556941775 0.3643868870395026 0.9194777678085295
Ar 4.364759777961381 1.2595799217300938 0.2818709324359805
Ar 1.6362400299033202 0.9964189394065391 4.988626492129848
Ar 2.6800658104036676 1.3195654562047892 4.6906228926541855
Ar 1.401765538856393 1.0872891136345728 2.2066667152938764
Ar 4.647421005623863 3.98987229098685 4.04229452149211
Ar 1.1254669185307657 4.467857973356464 3.3970335830355007
Ar 1.3061453574235786 3.5067410016773697 4.166771705779673
Ar 1.0122148143279346 2.9934061499569977 0.7628291924812963
Ar 2.424426136927204 1.1419287172763501 2.7437456941009013
Ar 3.685991818399235 3.0316216893806676 2.2781194450768383
Ar 4.350231377790924 2.461971035246337 0.19135717101665517
Ar 2.667309778045889 3.6013441522203617 0.08231752170990597
Ar 2.0685019602984087 4.802289144444623 3.8432909480008535
Ar 0.6967818568913455 0.9370112569661703 0.33109211544262224
Ar 2.507393004874791 2.9227440152461677 3.9460388866585596
Ar 3.138621872056463 4.6047484422389235 3.7879858885310154
Ar 4.506397065551095 1.8885080656893598 1.2518256488197208
Ar 4.966510550734495 5.030488393317359 3.8183234269427513
Ar 0.21660174060949225 2.4518890649341105 0.7955679031668235
Ar 2.347334160061711 3.5339510278411597 1.2311849923697538
Ar 2.051975636323535 2.601912732986108 0.9309023386278715
Ar 2.751286625399121 2.1361424315106725 2.755052567321416
Ar 4.5874013593382905 1.8725711365062465 2.339682242394993
Ar 4.002212715117871 3.615568559165311 5.034193274094148
Ar 0.17859832567994322 1.803143573642116 4.941543923832692
Ar 3.443955761724375 0.7956181964111826 0.02122464446053564
Ar 5.009979912717719 1.1618334444688894 3.29510900915057
Ar 3.0819380971246844 1.9002098575328485 3.8991321337896214
Ar 4.392795784746497 2.8477899044013864 3.890859697310052
Ar 3.1293797745728997 0.5790824778458594 4.052290284498626
Ar 4.143954756997691 0.9717091896653341 3.865323467072877
Ar 1.9058344788300532 4.2024545512816385 2.4413614934842003
Ar 3.518210381533758 0.06268022250802027 2.1648785943157622
Ar 3.2040421200720433 1.202889650726171 1.1771973141811627
Ar 2.7743542119164455 3.695478446948075 2.390098651842907
Ar 2.178843693248244 2.1997509691976633 5.032067595051215
Ar 3.447361782460989 1.5107705649162773 2.3257827884014324
Ar 0.5261088904538256 3.4457042657054906 1.52474700443209
Ar 0.28661578570121043 1.151044873975593 2.3009889342956287
Ar 3.662977749562836 4.015636085208301 1.8607257391486527
Ar 4.629229143471292 3.7079338933595984 2.164819294061026
Ar 2.163689242054896 1.8440710752308327 3.564300144656111
Ar 4.566371511503081 4.455772273506757 1.2921355665371335
Ar 3.1520374462373613 3.0264147723755754 0.9374810410420504
Ar 3.561368366327675 2.163787297490013 1.4870071825356777
Ar 0.8687872800937523 2.3785521833684093 1.9571885821989756
Ar 3.3417198819650706 1.9851564680957594 0.34672248268571065
Ar 3.427304249515164 3.6537575647699736 4.078897316170332
Ar 4.936448585415783 3.6032647608652266 0.6132185550858782
Ar 0.9929298401415112 3.8227012127577766 0.14694845688305613
Ar 3.577808247008682 4.072804143078816 2.9660820725838946
Ar 3.3396392362736522 4.083067094108045 0.7631553245791818
Ar 4.909702590434841 2.6976308283622883 1.7694657495627677
Ar 4.152473886502226 3.02021503305113 1.0432572101982052
Ar 4.355878160954565 0.8059895109671745 2.6410904508666415
Ar 5.035588767220913 4.303057268371585 3.0959884506293127
Ar 4.832694862875184 0.38994261425449334 0.5412440030572483
108
step=16200 time=81.0000 Lattice="5.038789 0 0 0 5.038789 0 0 0 5.038789" Properties=species:S:1:pos:R:3 pbc="T T T"
Ar 4.629561727630103 4.742597909447713 2.343505921562124
Ar 0.47399388106486123 2.8597741472089013 2.8430484765725663
Ar 2.255723799496111 1.4470649005739384 0.44747841906873975
Ar 2.2199981022469597 3.707410258353789 3.323588730435801
Ar 2.3794615747051946 1.1765305960590045 1.6262834980421317
Ar 1.773456509423561 2.83593108141364 2.94749797704426
Ar 0.608302502820596 4.374111422280042 3.5723789824125536
Ar 0.39026842763721736 0.6711079393749845 4.5644957175921
Ar 4.3911769176133015 0.6082760262702805 1.7492178908413847
Ar 3.8649249563888293 4.8601236590184955 3.4542003422506014
Ar 2.990959082295688 2.7948001943566156 4.812053963035036
Ar 1.0505200086556243 0.48375561873818135 3.793502466639012
Ar 1.050105885494975 1.4733213513589218 4.1538800897652735
Ar 1.080800620179582 2.063471520394576 0.14503564933438468
Ar 1.8408810746947777 0.5478848564581312 0.9157724811950132
Ar 1.1995902141576709 2.502199777670005 3.935229681573094
Ar 3.9983872204293323 2.1001626043969974 3.402037299222013
Ar 3.141054263781478 2.660669893860031 3.704209858522346
Ar 2.757090852734044 2.1357184617364515 1.368391165989801
Ar 1.1539352443726334 1.9551252051054988 2.996483239381944
Ar 0.7302068095861486 4.871928020721905 2.594091025430275
Ar 4.431163654447385 2.2070382818071046 4.466331716876492
Ar 1.3770900613312567 0.9500373593844496 2.9226648003482247
Ar 1.8367206515490824 2.3176574832593886 1.9616034913449638
Ar 4.551081543420056 2.953274287551829 3.2675949328534575
Ar 1.9170416855421168 4.153218364434918 4.533331158903213
Ar 0.13306070615446702 2.3616633124596125 3.7910371480058958
Ar 2.1610099615265357 0.3077747996725489 2.340016475196278
Ar 0.6285801193636886 4.623144888455926 0.8255249268361355
Ar 0.09674080139522721 3.40114483266434 4.299478416069853
Ar 1.4118970964951338 3.3878340237184004 2.021462025969203
Ar 0.3382133845009327 1.1940829481810384 1.3926623169467172
Ar 1.2922109423572261 1.7854599995442275 1.1952608572371444
Ar 4.429153639641183 0.16065847103759603 4.3943179817046945
Ar 0.5332429979077453 3.070089988660297 0.17787682311870454
Ar 2.064855800915 4.681090918831121 0.4552644207791134
Ar 1.5094038456399954 3.8416320510886646 1.0369410684818543
Ar 3.913366451224795 4.976003364219798 1.0147188559689186
Ar 1.279046742149671 5.016051633734589 4.754887057067408
Ar 0.2361453525603643 4.544373309407301 4.506552140262452
Ar 2.33345190493302 0.10264022041255351 4.439071851844898
Ar 0.373591089608954 0.15694357176045698 1.6454779162677762
Ar 2.944140736631772 4.525054713370171 2.58950186776835
Ar 2.98125423038367 4.523544467497954 4.883845625107474
Ar 1.541075463865403 3.009170682457077 4.943923844062157
Ar 3.110403288512831 0.5392273558970102 3.052710455664387
Ar 2.3212185115957262 0.8464557227389568 3.684730597039699
Ar 2.524015586007162 4.778485620790134 1.493899262832484
Ar 0.7745742443439062 4.180084472470882 1.879403108778796
Ar 1.4868106827425172 4.88032908127348 1.6864945669178941
Ar 3.014931824277037 0.293778083699658 0.6046028555430811
Ar 4.420800989088524 1.3287744048830066 0.8165187475735365
Ar 1.8472254438185671 1.0170091942150428 4.605126140036544
Ar 2.9841625928331386 1.0572220024210932 4.792748123260531
Ar 1.3330222735612816 0.922984483860629 1.7969925250126795
Ar 4.187745698862154 4.14170391059187 4.245498512856463
Ar 1.1268408514309576 3.764556388459887 2.942218759103916
Ar 1.193134746503384 3.5828129423520636 4.059494422869355
Ar 1.309119570858598 2.788453736759459 1.0676348440656627
Ar 2.2615501222685426 1.5112644531323949 2.659568291040271
Ar 3.695443271951968 2.9303256799536093 2.645970073458559
Ar 4.2951240743161945 2.797569019770058 0.3851253758337803
Ar 2.467327217452632 3.765882938974051 0.379402529613954
Ar 1.9104229084995163 4.97083817249723 3.2497395973757452
Ar 0.8757846069122702 0.7914821690006434 0.6062480903732689
Ar 2.1873714815573773 2.994063942740158 4.117038966078241
Ar 2.913744721749225 4.639412071607059 3.7011352231131185
Ar 4.503419554619202 1.7138999253475005 1.8041787562795446
Ar 4.931546111987486 0.18023131662167494 3.4900943490402763
Ar 0.1714847687097773 2.1600549345043274 0.8693171754867539
Ar 2.4557435331804323 3.4715256281964164 1.478255723902008
Ar 2.2881160565303493 2.5828540631992865 0.5641778443292167
Ar 2.8277179653573326 2.3895147047063956 2.617793498812768
Ar 4.846293295153974 1.7842949690304628 2.8086466615777193
Ar 3.659656888615133 3.781503549012549 0.10444258243865438
Ar 0.18277540284118446 1.6186298050668866 4.895634378304877
Ar 3.9216579742353934 0.6777903784848491 0.19807173869804237
Ar 0.15220389333321407 1.2476572905609116 3.7266180011668997
Ar 3.14349041214012 1.6416602571479775 3.9620546363258717
Ar 4.061992144304936 3.1297786057173207 4.210945133617392
Ar 3.3917709473775637 0.4148663109338341 4.14790790183106
Ar 4.009208810961404 1.1717386422353773 4.244024083509649
Ar 1.9216176407695613 4.312911037614635 2.5343773854260228
Ar 3.260689624830106 0.4303985102882576 1.8685619961366462
Ar 3.5261940731679053 1.306692327200351 1.3641625383236187
Ar 2.923373020273718 3.5550619404247903 2.4744884455710796
Ar 2.317718299440556 1.9616243458432419 4.567270242555375
Ar 3.502601754726029 1.4358960413427064 2.4903430946658003
Ar 0.22013928512415726 3.271055469287159 1.2529173727149134
Ar 0.309073922398754 0.9555542200070938 2.4192561455054875
Ar 3.716195198535504 4.259728426417543 1.9281080925030258
Ar 4.511518229373528 3.743109361916692 2.220750884162778
Ar 1.9461511577702557 1.96944265520842 3.5682685293516214
Ar 4.712295591096319 4.386976411076416 1.3978424657944848
Ar 3.3036083976742816 3.017020514024493 0.7554432267415603
Ar 3.7491766305205334 2.56624724016768 1.6272901571178209
Ar 0.6494083860288274 1.9478870672492279 2.103220001093205
Ar 3.2170139936682105 2.0151693817362695 0.4693756001449212
Ar 3.0063282694557834 3.766174545657987 4.220251304257014
Ar 4.652159778935056 3.891386032797822 0.24438214547796328
Ar 1.0187625187256713 3.9442275043380985 5.006080492275127
Ar 3.6762984843721354 3.7810063161493916 3.2885824644469737
Ar 3.2653352030372025 4.05091086346874 1.0318997643773595
Ar 4.731327560105668 2.6914278098572617 2.011269877871879
Ar 4.145585895200978 3.4789105361474126 1.2113135754636175
Ar 4.215200013655242 0.8485763699506689 3.120988690250751
Ar 4.698772932159552 4.019187280368921 3.3548968878253853
Ar 4.777457561328954 4.955312296455858 0.45583606936523724
108
step=16400 time=82.0000 Lattice="5.038789 0 0 0 5.038789 0 0 0 5.038789" Properties=species:S:1:pos:R:3 pbc="T T T"
Ar 4.985015574435349 4.733808897962218 2.287352304225144
Ar 0.6244330387198197 3.0680631027489813 2.959186611667582
Ar 2.5777614834842417 1.4440176981964437 0.7194735742718303
Ar 2.0283157011372714 4.292833358653843 3.224734739878823
Ar 2.4249755551658065 0.8219278239168435 1.630477625253762
Ar 1.9096092857921787 3.0517581280347432 2.7224886994816084
Ar 0.8406046935107695 4.668353404165096 3.4385273465104147
Ar 0.4421821759581013 0.38494461543475805 0.08308495555035698
Ar 4.471749274325163 0.23593338627728072 1.490600248476118
Ar 3.912921213157077 4.9048709604771945 3.30071354180503
Ar 3.226663982566782 2.693323644260671 4.150579903953535
Ar 1.2042832668379377 0.2528614186612493 4.3090877846682165
Ar 1.0112766428027256 1.4103496336880563 4.227266898491617
Ar 0.8218677443793599 2.191727178561115 4.842890525184123
Ar 1.5683561301404265 0.7431341818464948 1.0473924362325608
Ar 1.3467216044158195 2.565357312557535 3.9519339968216083
Ar 4.107910501795987 2.0954518766200203 3.378046987005192
Ar 2.9744228935217967 3.2827408021929148 3.251253356736705
Ar 2.9409136622189376 1.963252937572569 1.5366431972834846
Ar 1.3108398949527915 1.7346108858602547 3.1146415553047184
Ar 0.9812230962695474 4.916144853517427 2.4236550777983568
Ar 4.294346350505317 2.5209885276939397 4.433781213568511
Ar 1.1154280423842307 0.6711598701263352 3.2170368129670988
Ar 1.8403980880329527 2.114464018547809 2.155388031100592
Ar 4.531448712521017 3.0958008202724825 3.2343435632130904
Ar 2.0078824138887024 4.163517953728163 4.486543073238168
Ar 0.14458325188619878 2.3138076045506657 3.967902490920061
Ar 2.0832214687779262 0.17886434422049932 2.357982675611383
Ar 0.2160521638214996 4.443128572563658 0.7242454351153801
Ar 0.4035922651143585 3.26818800319112 4.034392813793934
Ar 1.3238967748952717 2.980840475174999 1.7992165600278716
Ar 4.936612167122543 1.244169575172638 1.6969538597280314
Ar 1.6159339991917625 1.851835365460829 1.128828999692486
Ar 4.534254592213964 0.5582900065629834 4.451392569273229
Ar 0.27369664815595307 3.0553118473474314 0.04349986109999444
Ar 2.305906688542459 4.502492094642107 0.6417787839112015
Ar 1.5718018341356952 3.7737251668035428 0.990286924249031
Ar 3.5711855306839584 4.9192400089768 1.0024691154678727
Ar 1.2539678184757326 4.882123740201993 0.46372705112568524
Ar 4.997073149194778 4.718184558469128 4.279234626142378
Ar 2.2373851121525754 0.24955595897678964 4.594444946878005
Ar 0.5355652363607635 0.3566382524586025 1.5164357595818139
Ar 2.9789303383534653 4.364809838093381 2.6630164135599452
Ar 3.119262958119327 4.657046192009327 5.01135480142469
Ar 1.5621999595938572 3.3222964569201436 4.91705675669417
Ar 3.1174360912914083 0.5882324170075915 3.2863524573522804
Ar 2.0267432085075443 1.14307157251035 3.8939772641805592
Ar 2.73029122852555 4.784669534439896 1.6222239639126774
Ar 0.6482861432696856 4.113969108578379 1.8140481028917477
Ar 1.6706705753716344 4.805214456605095 1.4594979757684368
Ar 2.7223605158372024 0.3793675673807631 0.5646602616811285
Ar 4.748221412275271 0.8670871435108211 0.6296147828558502
Ar 1.6321880094943908 0.9965791132481077 0.02651100619730442
Ar 2.817531377760445 1.3966646008685895 4.708983088781445
Ar 1.4971351049651787 1.1018767555775837 2.1611390816426357
Ar 3.947128739456763 4.593283204032526 4.306654064449231
Ar 1.1887769060196172 3.8568078102914654 2.8027417590007846
Ar 1.312858584141792 3.672785846367908 3.825850893092429
Ar 1.058104382646843 2.7962445874700053 0.7943254133013691
Ar 2.3193943835605952 1.0856493977256714 2.806506219976252
Ar 3.8495137831651065 2.8853176511545024 2.4222298314883086
Ar 4.339901509879484 2.7397125600629146 0.5048456075668317
Ar 2.568962487130535 3.495259936687337 0.2700503157795304
Ar 2.0755473383333487 0.268821712269302 3.3545883211924443
Ar 0.7065504724743158 1.246874181469336 0.8350256737805726
Ar 2.2192303437022907 2.980740876543124 4.186647247762366
Ar 2.790376798435272 4.705197945104048 3.878051629427851
Ar 4.414699222714883 1.89096123313699 2.4018967299320053
Ar 4.9335832414330625 0.1411992452069486 3.423435447606176
Ar 0.16860600025378364 2.1256325934872398 0.9802599198123889
Ar 2.311154045572665 2.9546865704843897 1.6133050636563455
Ar 2.0622327645504455 2.6426556647711283 0.5464618085123286
Ar 2.85593095766023 2.3999777378737575 2.534842435068978
Ar 0.25749039267376533 1.9078631858008097 3.040361623575392
Ar 3.6827388345073815 3.704482833473436 0.11340098877317632
Ar 0.03466986269529658 1.450105845928296 4.826117798968838
Ar 3.7397985301430787 0.8969220614016478 0.28957385746850345
Ar 0.16800530828463428 1.0725250980931669 3.711218543501403
Ar 3.21570012823258 1.5604420959298013 3.6886353167630603
Ar 3.9141532463204207 3.4459681937436177 3.9804353422593213
Ar 3.453968405630582 0.5503314845239127 4.343552568525991
Ar 3.896604601224956 1.5914276380743204 4.5124431234702085
Ar 2.157184984879552 3.998344033828355 2.0195956867680827
Ar 3.4616609351594696 0.2734354210179064 2.276373099370633
Ar 3.544145499501029 0.915170792414507 1.4189215140355362
Ar 3.0565613735175483 3.47623149314246 2.1567821375587157
Ar 1.8895788081604878 1.9457132863210536 4.6581977855669425
Ar 3.3244172023498 1.3792008742344313 2.50846883663914
Ar 0.057266439788830316 3.4452902114740755 0.9958906025718411
Ar 0.20459507457526444 0.6745785440100107 2.5501445771061038
Ar 3.7282763846563203 4.38178144294304 1.8518238331877643
Ar 4.698130967673367 3.6948442805350177 2.312420980048054
Ar 2.2833480472193024 2.1186424142960583 3.5201861483330292
Ar 4.256795426998823 4.027272104583137 0.8439019963354607
Ar 3.08085472902034 2.7693324033273123 0.7589812161979468
Ar 4.061201556939018 2.1325495903122755 1.4232515958973162
Ar 0.8286458134232307 1.997208398996033 1.882139135277123
Ar 3.4843210858609006 1.8814938003128567 0.460025567498985
Ar 3.0157552070552143 3.8339470465004917 4.342868220015613
Ar 4.647695274787716 3.7706436360429274 4.800946400974042
Ar 0.7489386408371255 4.167703241155114 4.756399395453026
Ar 3.843803117771077 3.8367379990606127 3.0566752927397305
Ar 2.882951856438749 3.812430740857417 1.1642235582252414
Ar 0.0030748376165073365 2.8040783989945184 1.8363196508306543
Ar 4.0097288561886035 3.202368012058482 1.5099840202709882
Ar 4.28132021959415 1.025683240565667 3.05666953583755
Ar 4.794188974158124 4.102135992536974 3.5024381882064763
Ar 4.448135197794059 4.965999364386612 0.36914399405912457
108
step=16600 time=83.0000 Lattice="5.038789 0 0 0 5.038789 0 0 0 5.038789" Properties=species:S:1:pos:R:3 pbc="T T T"
Ar 4.850250291088816 4.618049367238744 2.4782904170372606
Ar 0.6507856784715127 3.16702261364261 3.221175148154475
Ar 2.669271028669005 1.969020017011388 0.5228395847496304
Ar 2.2830262260802985 3.9381096330988687 3.30971566094059
Ar 2.82314400187783 1.3018533433743673 1.4658458567559178
Ar 1.6875129744154929 2.951206820335037 3.0822427116300557
Ar 1.024989385133263 4.60692842459984 3.5104005838997314
Ar 0.6303125443373255 0.6194014107393769 0.20502932786176026
Ar 4.694485452597173 0.07682090855040787 1.501034716265815
Ar 3.8420891536164308 4.677968919708964 2.8020900804369244
Ar 2.889990168846263 2.128339299651212 4.436586732853001
Ar 1.0847081301173205 0.25238578894136077 4.454181055981636
Ar 0.8659106183046539 1.3453142652631365 4.278799906134473
Ar 0.8035301633687364 1.928361561607963 0.13263760308918232
Ar 1.7687704509356044 0.46059871964464594 1.3009084325740932
Ar 1.2694820012138366 2.278181995142196 3.875164452762572
Ar 3.4776739964825403 2.3386895241991557 3.54215629151456
Ar 2.659306315104756 3.008067347323287 3.1031670121935226
Ar 3.231256743074566 2.3540932693281937 1.348174495651667
Ar 1.3900359672127582 1.6169994243561963 3.0459913619358394
Ar 0.7160852403430337 0.18219448751169023 2.324117566510775
Ar 3.7952811319906106 2.6548421475231008 4.595437086814087
Ar 0.8257848347295851 0.7045047347728339 3.4045245115923493
Ar 1.4203246826557825 2.5946438824179694 2.192363623069495
Ar 4.485262361622321 2.9463664113178885 3.374357938420828
Ar 2.3171969478022625 4.192115098584855 4.3362899370575745
Ar 0.26917251792143154 2.5445494534742457 4.130654313809482
Ar 1.8038177793653518 0.025534558064572117 2.562986853068874
Ar 0.5804014164637336 4.533160671345054 0.39337506606912814
Ar 0.5210703832908249 3.6406973773230575 4.237395219017342
Ar 0.94886081327243 3.4707759531487286 1.7134074823909484
Ar 4.962694521690768 1.1501871440984839 1.7455266311700492
Ar 1.7450126878330818 1.7447865300048864 1.3325004584917626
Ar 4.9173307733428135 0.759898040997813 4.449436184752038
Ar 0.6524298966767478 3.3451339962357354 0.5163759243707001
Ar 2.378620478490132 4.535918780890728 0.8706437125911161
Ar 1.529105860503043 3.885517652417518 0.8190159089366168
Ar 3.803761355255145 4.866438169641719 0.8542230466469523
Ar 1.4685302970253022 5.012478038792097 0.4220257488939912
Ar 0.250843470933342 4.728669553894829 4.3379546099037665
Ar 2.163789558267122 0.2130755272008064 4.665875324273545
Ar 0.7552524086348806 0.24829782124513852 1.178084664457393
Ar 2.8584478538755866 4.180231980120035 2.3858666771550174
Ar 3.3320461075140675 4.766830876502449 4.776895510068367
Ar 1.1651617611881366 2.880322100424545 4.693322938660211
Ar 2.9692618812922023 0.30098105179369383 2.7153026000610057
Ar 2.1928130750878907 1.0065683426059935 3.757286147213655
Ar 3.002869882305088 0.1639633286866847 1.5352777781831257
Ar 0.42323393001493576 4.367804970775764 1.5124598176599964
Ar 1.4758878653478837 4.478352753758487 1.7025754788192728
Ar 2.9402938688907763 0.6522946945462724 0.5877888638190973
Ar 4.724881296862561 1.089085414072714 0.6172250280019251
Ar 1.6134472394943415 0.9703827350528673 0.292324885969859
Ar 2.6206295532976847 1.1753728666883985 4.84198877510266
Ar 0.946516990452766 1.4312175620893721 1.9809932057633757
Ar 4.20820845700244 4.771690876373954 3.96295877847133
Ar 1.0308938712755638 4.00764945355778 2.633280561369359
Ar 1.478405350556336 3.5372144385044217 3.885933247971536
Ar 1.0421395869381493 2.4681305454806686 1.1096139262908078
Ar 2.072167497827061 1.1599646954707576 2.279705856325896
Ar 3.53502859090397 2.4654684773224242 2.4359642040487453
Ar 4.28390763796442 2.8534669262384282 0.5848425421232875
Ar 2.425266125139984 3.765380578960271 0.2194896961628684
Ar 2.0556375960885633 4.9218041010697275 3.5573109150880327
Ar 0.8015671245942828 1.3899634966485208 0.9984346948158691
Ar 2.1493153512552112 2.8589491943380585 4.169102920385984
Ar 3.2930012522313605 4.565099039572334 3.645999389211932
Ar 4.137276475239116 1.6755837330680425 2.8790893693837756
Ar 0.006457477226907296 0.11463476451771126 3.3911990758905453
Ar 5.021413823560532 2.1111817866737734 0.8400295873343417
Ar 2.1990668766290473 2.867174253568585 1.3035271653512617
Ar 1.9100376414957758 2.71379059112918 0.37389251567955956
Ar 2.456978780844844 2.1969822152320675 2.109000215791822
Ar 0.2953209611047504 2.120256994940544 2.9973804816207217
Ar 3.8429542270807615 3.912911130130041 0.2355055529640385
Ar 4.661557689819938 1.9570799831613135 4.886883440587409
Ar 3.8508179323507967 0.6821529966375274 0.055855030277928895
Ar 4.66022170110459 1.5949305994780827 3.875335308439551
Ar 3.127781402868667 1.2454995679893008 3.2481189363906044
Ar 4.297755812435929 3.705317651595503 4.218805775985543
Ar 3.243564293431633 0.5482085979415195 4.156175505715949
Ar 3.742982681479002 1.495865904258817 4.433762018591174
Ar 2.0508293226891796 3.7200394355789608 2.114690948113141
Ar 4.280821551704872 0.524502876759775 2.41118868685175
Ar 3.709021122080925 0.9490997444816984 1.297580792619428
Ar 3.0700903256996344 3.2072414864626864 1.966172727699843
Ar 1.7377703330085406 1.7863740599357198 4.6961056895851705
Ar 3.4698260134725265 1.3340966858480643 2.2589308216621373
Ar 0.04937676413511168 3.1756346125008457 1.3115552849292398
Ar 0.05714258783616794 1.1916487727641287 2.875008542442753
Ar 3.7592449503405434 4.494685578178652 1.854768113294207
Ar 5.0359782216182625 3.5419848736339707 2.3434198035359644
Ar 2.326879866629141 2.031387789402108 3.3262782337719456
Ar 4.490254085524345 4.056402806510404 1.0436203648202502
Ar 3.120957369021388 2.8973191808114755 0.23444226688371256
Ar 4.299234327311379 2.0004797148233706 1.6078227026073522
Ar 0.3085623459470334 2.2080216185207693 1.8905105259079464
Ar 3.771229645857684 1.814206166631783 0.5616697848214947
Ar 3.1599156292090917 3.504116974331293 4.308194054425166
Ar 4.914073506566462 3.840807970832583 0.03589760374855594
Ar 1.2633482674748984 4.169639250929842 4.721732597209284
Ar 3.603091335075092 3.550362504857476 2.8184391428114153
Ar 3.1887532141585746 3.981477199438143 1.111233554384606
Ar 4.601377516196997 2.6124046178686124 2.4316857373111618
Ar 4.104725749457044 3.2156289808676806 1.602637483318752
Ar 4.1671653592822695 0.6404822544104302 3.4825638489315747
Ar 4.975775919737977 4.019876784123242 3.4423552839217058
Ar 4.615548014947246 4.8397011078246726 0.30899359658413966
108
step=16800 time=84.0000 Lattice="5.038789 0 0 0 5.038789 0 0 0 5.038789" Properties=species:S:1:pos:R:3 pbc="T T T"
Ar 0.0739021151848462 4.8064598045323885 2.6717063674980714
Ar 0.7597077994960433 3.1006979710651486 3.4913674685284604
Ar 2.8714281102217543 1.8143374863683475 0.3676766008039292
Ar 1.7984206619857537 4.4030971311424105 2.9928721395338833
Ar 3.1211859648731335 1.1481641993358684 1.7767420971212997
Ar 1.8144370635176428 3.1073648847801243 3.0192133125168072
Ar 0.9510940946504386 4.995391620367599 3.5141797450547125
Ar 0.44331873369334296 0.8323687867247382 0.2401531704215822
Ar 4.9288045917476255 4.833897971796832 1.518302288679944
Ar 4.107743501138614 4.649708962637773 3.235301181342085
Ar 2.6789741647271383 1.9917086638295958 4.3490065565888925
Ar 1.219943053061396 0.5295034123554722 4.499280325266735
Ar 0.5859418349149224 1.3375722631161002 4.069237343885762
Ar 0.6676398437204354 1.807271222121142 4.978280920229563
Ar 2.03346332785189 0.671005251547875 1.353010250381844
Ar 1.310203959659036 2.273814346854042 3.9313123850260623
Ar 3.6230575397694604 2.3026447413913154 3.7921050089697794
Ar 2.7543543932185535 3.5623413588817154 3.36887011409733
Ar 3.161328199540426 2.3564529622742665 1.286827856599647
Ar 1.5494822734245697 2.0537718744265665 2.7434585871161294
Ar 1.039672332316626 0.04425050924525782 2.2703470703640596
Ar 4.221966417281094 2.867021817145658 4.619931018202194
Ar 1.0628159247939466 0.9576965955935663 3.0472313655824164
Ar 1.428068021223828 2.2226638816041073 1.6611121392271668
Ar 4.4616141032522965 2.9130335224251143 3.447176437024846
Ar 2.404517801650824 4.239155663920271 4.078367885659233
Ar 0.17353138048840505 2.4502349207003404 4.27468587467002
Ar 2.076781162577023 0.2190167661888319 2.4516152859467084
Ar 0.5274558368834714 4.7421696441539165 0.5236367726296324
Ar 0.5389384914608198 3.8069986649851617 4.264011053415588
Ar 0.6400523630436599 2.996583962111341 2.4415139684981315
Ar 4.850385809203783 1.0142687760652385 1.4317508799302012
Ar 2.223131046050471 1.7122983280526771 1.182558881961001
Ar 4.638904546312567 0.9024846033372464 4.382793121485059
Ar 0.5507172878040717 3.5576326710479025 0.3191576992597511
Ar 2.5583342321705347 4.750810922532171 0.8281909811578156
Ar 1.8260063356931542 3.888454570688643 0.75804648349652
Ar 3.543317519680016 4.393278995346811 0.8222135498639891
Ar 1.5095927819049906 0.1742690418924089 0.4890468484452924
Ar 0.3686833769753613 4.9556257255501 4.4721269999958135
Ar 2.263765406450301 4.851439763924949 4.862039752523315
Ar 0.7752432709932258 0.492724315650812 1.3468943623641045
Ar 2.585651560779645 4.068078155950547 2.221613163017316
Ar 3.513567765024783 4.359186882576895 4.517029685414947
Ar 1.0028264772238389 2.8592784640894315 4.7827731326726886
Ar 2.993058411260122 0.5763544060948543 2.723780608361605
Ar 1.9147478548629546 1.4181295423705031 3.884303140250347
Ar 2.8907981894704533 4.960048694897415 1.7431040436922602
Ar 0.8719228444618111 4.100469539161921 1.2597582650965464
Ar 1.8654518943082117 4.59332537743017 1.6148268119276676
Ar 3.0886850052120187 0.7784639746545124 0.7508662839105305
Ar 4.401899092074464 0.927764499450132 0.4289563105440456
Ar 1.8283126099448226 1.129225009619869 0.3806431607116349
Ar 2.558277598156708 0.8900617785679692 4.753600150635011
Ar 1.3735641250533317 1.231866107529581 2.011018628935626
Ar 4.4267350923243765 4.950784607849184 4.194836055460435
Ar 0.9522676123028958 4.047652841818703 2.521931552482537
Ar 1.4756023721632663 3.865058302612086 3.7872125711528923
Ar 0.9090489605299346 2.63565045291271 0.8301566763426504
Ar 2.1688450634636243 1.2041165036548178 2.806531346601465
Ar 3.7121881063958484 2.675084499445469 2.6543161018024546
Ar 3.9984204194425583 2.634922281062296 0.6823122888882754
Ar 2.7312002835801836 3.926670420263364 0.1814248643802229
Ar 1.968494023842296 0.3520860879657701 3.5643022321059106
Ar 0.8782331633574497 1.6232026870672087 0.9235371020016736
Ar 2.082465609588695 2.9544085633201442 4.004487741844731
Ar 3.0384873803527612 4.516763419724891 3.0233969066086988
Ar 4.615542599136959 1.4288752979137385 2.80629409713203
Ar 4.982600954733427 0.5535181340888157 3.392848051715516
Ar 4.849567578619878 1.870414677707142 0.922868561679373
Ar 2.0615986818902656 2.833387843246869 0.9134032644959196
Ar 1.7568131602235644 3.538557120640547 4.826952885415508
Ar 2.4093880552387663 1.9480947473479084 2.1773892580990335
Ar 0.4423595455008107 2.064045725344229 3.238096998774508
Ar 3.705488709088648 3.5860186860477654 0.1795099798000488
Ar 4.441637511083221 1.9178044906848835 4.926891207733653
Ar 3.5500136333538133 0.15748892619459412 0.07913992320001544
Ar 4.499338920111208 1.8034644730212275 3.725328466590024
Ar 3.0274150674985347 1.2470654959538892 3.7479688670490954
Ar 4.269242417915185 3.7936589759267334 3.956663548677653
Ar 3.118075025189531 0.21076680479569299 3.9712924164766332
Ar 3.648720729357939 1.2395479545434582 4.746018638865282
Ar 1.5454179432157236 3.4189734287830307 1.8735641009912036
Ar 4.01385236446849 0.29522698847800527 2.461704991249093
Ar 3.8448755454596495 0.23208161626993268 1.4309685589952958
Ar 2.637339168628514 2.9797941915507438 2.3603793984157533
Ar 1.759074143127283 2.157878554906759 0.24922913169625102
Ar 3.4200774454110023 1.5282038584450048 2.7871454854782653
Ar 4.9985771392074865 2.888568499958196 1.3010365605362477
Ar 0.2876944229761795 0.8767414314522471 2.359909146790952
Ar 3.799086847142691 4.397059244098501 1.8460848475458809
Ar 4.9327945607599935 3.721766549950776 1.9642011817462228
Ar 2.5998084757688664 2.3137931486841747 3.221517926566733
Ar 4.4045828522100265 3.716636693502729 0.9437872891563999
Ar 2.7811299962421794 2.8542707754762913 0.11522475024630713
Ar 4.070909248266138 1.8372149798650663 1.8630884541219488
Ar 0.559962586940951 1.7822940984863975 1.9282100705653393
Ar 3.727835233351866 1.6754683352210729 0.8544820808019148
Ar 3.223952562484879 3.2434173563652644 4.282917354826426
Ar 4.688642375914506 4.012241514880152 4.917705685695262
Ar 1.3465842679855027 4.480002936749562 4.593838349838877
Ar 3.7572853946988145 3.6328960216699326 2.9331918305908373
Ar 2.9138820643813816 3.4066972725759586 1.172458207985322
Ar 4.720701148632499 2.6038881062014685 2.414295599165857
Ar 3.9283822449818904 3.2957655111614432 1.8520719997868682
Ar 4.028012988855718 0.7920852666088348 3.5184770529299363
Ar 4.94923851399787 3.8826878589093674 3.210302674973855
Ar 4.485979838424938 4.90666630660255 0.6080531313578141
108
step=17000 time=85.0000 Lattice="5.038789 0 0 0 5.038789 0 0 0 5.038789" Properties=species:S:1:pos:R:3 pbc="T T T"
Ar 4.945347049465927 4.648344140369291 3.2868320515594536
Ar 0.9395458376577454 2.7307819539995615 3.4022201985746388
Ar 3.3969201753361857 2.2417845058863595 0.17388544431859962
Ar 1.6491126139455765 4.481754079994384 2.791074881033328
Ar 3.1179458594237284 0.8930227994459884 1.9579731074985034
Ar 1.573125053292049 3.406216690013122 2.9256334384935587
Ar 1.0154163259199949 4.882715957649169 3.7105471842591835
Ar 0.5813918255835023 0.871765796802073 0.4482363754727134
Ar 0.03839267245819036 0.026196573997462332 1.5629163889082012
Ar 3.7640588351303976 4.7415670240972565 3.1140516161129077
Ar 2.592987798452468 1.6514353417483756 4.659349316008653
Ar 1.2489011334921791 0.27210859373677665 4.668512886956445
Ar 0.4991542281056064 1.564889467337616 4.0109492967259195
Ar 1.3490439048982372 1.3758376026773413 4.74551074389856
Ar 2.1409207714659764 0.9555088956955434 1.7637816790697431
Ar 1.7073987887827893 1.9480808090211588 3.8560454097731296
Ar 3.010472026178578 2.801216739485779 3.5880079408064223
Ar 2.540702385922423 3.5907989683069403 2.8725602582981007
Ar 3.355872867067233 2.535487281242465 1.2859962739151878
Ar 1.2089458540869522 1.868334317123993 2.8888543935510853
Ar 0.7768064547220509 4.998279378162067 2.430232807629092
Ar 3.889716522382592 2.9972830187308843 4.256532898487968
Ar 1.0637874091763564 0.9082865127220997 3.4049468904571243
Ar 1.4050260733862827 2.1273518422469144 1.9067028322715034
Ar 4.034051977333676 2.5032524055816223 3.2664861400909433
Ar 2.431046883638219 3.858025795948704 4.01499076079193
Ar 0.0261102373927736 2.586695873288885 3.943525812888032
Ar 2.2374079398432984 0.32488239487873444 2.6431867136668616
Ar 0.5555458248965283 4.808026688081804 0.48060379735537845
Ar 0.3916340792087429 3.5693572497925152 4.095347317524719
Ar 0.48573866181993813 2.7582415072296347 2.403163686424186
Ar 4.807393770340894 1.0563272495071594 1.24869269401962
Ar 2.2408108897903123 2.0654529414746627 0.9221123319353972
Ar 5.016781537767702 0.7987481298899373 4.677570863151666
Ar 0.7810789043115063 3.5011677309361633 0.48408158232080434
Ar 2.7862134905416416 0.10432107369008982 1.09200712910362
Ar 1.8018181490735288 3.9693537017684966 0.9854708353177167
Ar 3.9988937956147756 4.436075287212966 0.8478878246175244
Ar 1.6395235360827094 4.963617447765305 0.6055177092797424
Ar 0.24069846203275694 4.763864027937419 4.406283152188251
Ar 2.3464832118423478 4.5930563338680175 4.926353942380318
Ar 0.9866790687016186 0.37742902846857795 1.3835675806616146
Ar 2.5019846135855617 4.0565220091535785 1.9348749366239224
Ar 3.5458495354767128 3.9608935123972744 4.646770807684412
Ar 1.0129895019759603 2.970305235090828 4.488123079551042
Ar 3.255651298915663 0.6194696082921365 2.941789361565605
Ar 1.9397032437533837 0.925734359623243 4.041428022706393
Ar 3.2721225617813534 4.823052243577694 2.035877832533675
Ar 0.7938782715637351 4.360275188640211 1.4659195516772399
Ar 1.7047164809360433 4.732660903889442 1.774457262281787
Ar 3.0235884690254053 1.4268342689029803 0.748334494466179
Ar 3.5395246901027413 1.0791245816237813 4.947912149080635
Ar 1.9236068156330273 1.1317241322737839 0.5436797487570474
Ar 2.5589898184125723 0.591927891769042 4.804846601384193
Ar 1.1633834762583923 0.9806224919150553 2.2102173183221923
Ar 4.306763881579364 4.910930982471883 4.659419733364164
Ar 0.6276313715133999 3.7944246328762192 3.0159565209517667
Ar 1.415109994272838 3.869549316516855 3.816264391016957
Ar 1.1314771892517304 2.4755673701395278 0.8970118765038129
Ar 2.151009563421385 1.2404700799042179 3.0157581745963147
Ar 3.339625975425289 2.7562119642397005 2.495467665500471
Ar 4.817921395004776 2.9635768564469975 4.921983739245393
Ar 2.821240430341175 4.146568941608254 0.6694133907611642
Ar 2.0558159211973726 4.842634157374248 3.8611033003229878
Ar 0.8262800306913133 1.5418740759120995 1.2178716913372152
Ar 2.0109639024989447 2.955333302254168 3.907942552342961
Ar 2.754649353547255 4.6321866017483995 3.0364260414658903
Ar 4.08124835592532 1.2659210857920755 2.902436035098712
Ar 0.04562619830026968 0.7328210158118231 3.600156930421707
Ar 0.07858227773052982 1.9973035190875437 0.6555847166674693
Ar 2.43931283437788 3.080572390708499 0.8585544388498857
Ar 1.8347168221175751 3.4911952808153877 4.971819505659887
Ar 2.5097719590998118 1.8846647573212754 2.0611030269281403
Ar 0.13783859424963207 1.9407956078951853 3.094159293850351
Ar 3.5586293238112514 3.362047211569902 0.4307276244114763
Ar 4.4550699338251585 1.8465370493452216 4.909910735875233
Ar 3.4063428293486435 4.973839028641091 0.1753261645769017
Ar 4.509834859577269 1.658360255736063 3.868352110078443
Ar 2.985124549173365 1.0948409179029046 3.87341979739791
Ar 4.407735552916857 3.9825091433372046 4.029097816184208
Ar 3.1338379148785327 4.899074434749105 4.186863566952568
Ar 3.5690367681111175 2.01059192097054 4.1543434032455995
Ar 1.1044650988544105 3.2367221912625475 1.6404539849303341
Ar 4.164297407163574 0.6541690178198472 1.9307846944793523
Ar 3.6797925157119074 0.6273572090662383 1.081739677267898
Ar 2.170162098488448 2.9727729750108987 1.889762348127654
Ar 1.8062929158909862 2.3908305839846595 5.019418544804375
Ar 3.1831985448864 1.7304519183690024 2.9393436950478917
Ar 0.11940788369102943 2.7340659839620947 1.3355338937772907
Ar 0.005986080009610084 0.9394458034036108 2.3882244710832405
Ar 4.177813270870223 4.593410353868395 1.8662351484352209
Ar 4.977529577186693 3.6528158059810494 2.1959299277095963
Ar 2.2718162763092593 2.2611752403896657 2.964299538002392
Ar 4.955831901853823 4.020585594731713 1.0582763399152728
Ar 2.877844125252958 3.0842292066802144 4.55690774272613
Ar 3.9752791929477236 1.654996942827744 1.8942626017743078
Ar 0.16574373069067805 1.8901341706238033 2.017995170536322
Ar 4.085013630002321 1.6526555276368495 0.786566684947252
Ar 3.5813017881657627 3.745403855309123 3.5301146648268986
Ar 5.021399077995694 3.9591326429123073 0.031286110933787345
Ar 1.0882682847730358 4.167958260298343 4.722650108744239
Ar 3.9708975359155723 3.6631639312061433 2.4525051600111927
Ar 3.412442262817176 3.7970221260033576 1.6416193579113494
Ar 4.42840044417507 2.5982279780767326 2.160984967184781
Ar 4.211559621575689 3.2546164482455695 1.250867514227495
Ar 4.022004060287074 0.7935481944531684 4.02199304771694
Ar 4.764061552307736 3.2744246068056437 3.267070708694143
Ar 4.56889610582131 0.2951406713408286 0.5572130245537119
108
step=17200 time=86.0000 Lattice="5.038789 0 0 0 5.038789 0 0 0 5.038789" Properties=species:S:1:pos:R:3 pbc="T T T"
Ar 4.536253685508777 4.435934257865656 3.493503242843014
Ar 0.9146333561924299 2.521609986639943 3.578271059073188
Ar 3.708550028268627 2.2864883920706807 0.34942210096840964
Ar 1.3969928042216007 4.103999258616685 2.2104564095409405
Ar 3.435694988276398 0.7165703015709375 1.9850025374198337
Ar 1.6432598887741097 3.193670283070194 2.7411156233720884
Ar 0.4797108673887852 0.31569781592448887 2.6025351455299544
Ar 0.4137908847824902 1.1387772082461667 0.7227576184520793
Ar 4.799451046990909 4.933956373716628 1.0525780066094055
Ar 3.5411543422925575 4.547381640641008 2.558337853003813
Ar 2.8007765850680313 1.777230774898065 0.042895899069684246
Ar 1.1034287944255448 0.7506071851670927 4.776087025317834
Ar 0.7933295884838458 2.0370508465591217 4.63144030483237
Ar 1.292438069517072 1.728209994134844 0.384831831872077
Ar 2.2211234651493603 0.9145615323869252 1.9238363427041256
Ar 2.2791079105213368 1.5018422956723554 4.146076265643239
Ar 3.3284813558584627 2.970159096143682 3.600037998761551
Ar 2.7502832786777964 3.5076245385078404 2.73951889351963
Ar 3.325504023713889 2.480482018873291 1.4040723900932872
Ar 0.8181047171766258 1.6243769146148426 2.9327702485646965
Ar 4.734771862051299 4.364212907606149 2.4406498158241607
Ar 3.936293317308667 2.922757572851697 4.547907260907653
Ar 1.2519191791300652 1.211862229993042 3.8688276586161234
Ar 1.7210232644245338 1.9337214675308447 2.4102756240898233
Ar 4.207894017993435 2.463542177660712 3.473115407253544
Ar 2.633137966932675 3.9396964037885733 3.8890892320190926
Ar 4.909500584581491 3.142758168185826 4.251695373267248
Ar 1.617786647129114 0.05534807692580992 2.5733053921998055
Ar 0.5296945239587764 0.10770908405316493 0.4905721803582432
Ar 0.3723166917891219 4.05824695961765 4.130512063806416
Ar 0.7566828553450751 2.6424120048138833 2.46922701652
Ar 4.720188456484616 0.978815962587369 1.4726367639197795
Ar 2.3124568618628407 1.8551380700307578 1.0823383766538155
Ar 0.11665860438760475 1.1121050984575636 4.5486333994072625
Ar 0.7795219456479289 3.4408244728813746 0.5718605894588253
Ar 2.6070036508301904 0.5174078089873992 0.900412951090874
Ar 1.7710831425648856 4.099760866984493 0.7566790980818573
Ar 4.160735761334836 4.4862681402397016 0.3053083359217487
Ar 1.6606052355097127 0.11592771779416933 0.49982864617301415
Ar 0.2878369358901762 0.035226434618049654 4.488175930027526
Ar 2.240266192575021 4.494123673236087 4.654888337370076
Ar 0.691181714344576 0.4009677239364774 1.5235996675373384
Ar 2.4102182608394274 3.8478867460571116 1.731743294356059
Ar 3.170869458184064 3.956960098838665 4.770852191149459
Ar 0.9977224096895648 3.078682361723065 4.614326108835018
Ar 3.0055897816828487 0.6445325931743118 2.890363084301921
Ar 2.1458469376900036 0.24486541618291668 3.923184142751563
Ar 2.8720489419876767 4.848187447232782 1.784696090234404
Ar 0.8372348209001272 4.337281033791778 1.2801147101753958
Ar 1.8324729451837942 4.948274785540045 1.581982108438894
Ar 3.350939169296761 1.3217435606385002 0.7687476977929513
Ar 3.831177476024229 1.213029602268468 4.92618286767889
Ar 1.5495298426055317 0.9662020267874479 1.0756768359185322
Ar 2.0905276363715974 0.9465333091795093 4.984174337255739
Ar 1.1569722113095555 1.1156336841718937 2.109501581361545
Ar 4.280032545557086 0.2209538552346983 4.383501681336272
Ar 0.7230075193646768 4.218066239433278 2.9757967364406843
Ar 1.3968420862416513 3.924335668919791 3.8176685283008673
Ar 1.5072286808719035 2.7309332961597326 0.5929694792711127
Ar 2.0995746121326677 1.1523772149775908 2.9869692569147728
Ar 3.551716565569753 2.398437822577077 2.482209960332473
Ar 4.6636036569862895 3.031655939234443 0.21300576374960759
Ar 2.8211443591230063 4.079208313111664 0.796185824456408
Ar 0.9594057758798431 0.10145525081550434 3.5636803770758037
Ar 1.3231683789558737 1.9470865380746323 1.4365361432597208
Ar 2.115434222623878 2.721092549540471 3.852383044835359
Ar 2.4497941902363385 4.557530041827582 2.874612098914647
Ar 3.9491391484845395 1.502157411539474 2.68851155708078
Ar 0.0010823231732866034 0.6486781596166407 3.629040381086651
Ar 0.3989825563452421 2.3498019860926376 0.5719149185321484
Ar 2.6511808570419206 3.0345540202578616 0.7622850385448159
Ar 1.987519966531644 3.479310893770289 4.788288909725972
Ar 2.8628098592662896 1.7193905422078741 2.2074309159846672
Ar 0.046810249036732116 1.7457149769244968 3.6477546798948333
Ar 3.7410928073754004 3.4839254691845203 0.660739720433392
Ar 4.598001962616481 2.0154770953250276 4.566323207966449
Ar 3.341908202402937 0.2569470200247381 0.1065119521785673
Ar 4.1518902084753035 1.230848426510403 3.820106787593074
Ar 3.105736132666449 0.8511967096582764 4.21231282064998
Ar 4.317130342914162 4.015016851848853 4.406900016464746
Ar 3.1989522342615206 4.808585267483144 4.126549635828806
Ar 3.2956159429045475 1.9259273419868674 4.217589341857003
Ar 1.454936754677147 3.3793904232335654 1.439324384976082
Ar 4.368115728592549 0.31543856860868824 2.1434493563065
Ar 3.7868857941481737 0.49120840465709736 1.087246098392239
Ar 2.2986328609169777 2.721012424442591 1.8165193833652005
Ar 1.909134548493304 2.240380432337962 4.763578934306343
Ar 2.944590986546431 1.7055179198695287 3.2826406083752913
Ar 0.5041652792736356 2.749232614019844 1.4933486504344229
Ar 4.860399925508359 1.1129828543105895 2.704391553063616
Ar 3.769742009582226 4.484808387919178 1.3617354904202321
Ar 0.2370791102812483 3.557736211999322 2.0084807282145443
Ar 2.4358697392905846 2.525703683730644 2.891755541010534
Ar 4.734969173725494 3.660952610730639 1.0905370293903496
Ar 2.796809312435682 2.871041131820429 4.6756045056238005
Ar 3.957442286611002 1.630765815857381 1.5889095550509094
Ar 0.10455398670280218 1.8132935891876811 1.7558209038359045
Ar 4.546113114083418 1.6602443618713132 0.5330063901666916
Ar 3.6217754804465625 4.037602532478762 3.5665887312969504
Ar 0.062678645803364 4.122908689313808 0.06223604172931269
Ar 1.1778158176646238 4.323019745786979 4.936119885921919
Ar 4.182225889090708 3.5099521015058985 2.8142436101494614
Ar 3.480271019850188 3.511966704202709 1.669061965442728
Ar 4.608443027098776 2.525191192540203 2.427152997680264
Ar 4.351846373671473 2.5709152142710594 1.1029988269042093
Ar 3.8343356673414526 0.2352040399072457 3.326568382976715
Ar 0.12735105646758185 3.1733533250634647 3.182885473696871
Ar 4.509026469345089 0.562852995831324 0.31596822858022855
108
step=17400 time=87.0000 Lattice="5.038789 0 0 0 5.038789 0 0 0 5.038789" Properties=species:S:1:pos:R:3 pbc="T T T"
Ar 4.852375344587351 4.975950316576762 3.543339053405651
Ar 1.7805149095522925 2.4336891353666705 3.4259316333500784
Ar 4.0175252885864445 2.293825724700189 0.3232907885392698
Ar 1.2974649592307663 4.028696679251132 2.3655751068769564
Ar 3.159559294176315 0.8732650579254841 1.8095142984890749
Ar 1.9257630847396725 3.192624802385968 2.788132446848194
Ar 0.013881426484133949 0.41245925496422625 2.403702657642501
Ar 0.7162809580022703 0.9800585988193545 0.49485045140263223
Ar 4.79909998651034 4.833419929360448 1.4656212768876296
Ar 3.3757721127691336 4.563405683954843 2.8328139549144518
Ar 2.591989457548559 1.7473649039094388 0.16290239309333862
Ar 1.3340236963364738 0.48880792593067546 4.887078076840703
Ar 0.7647850652680639 2.1993668805364517 4.254987096989603
Ar 1.5463695736582947 1.57358435396503 0.003016329819504985
Ar 1.8194938684401616 0.8294881155265674 2.0346797073781873
Ar 2.1385196668035817 1.644098551083857 3.9949423532008534
Ar 3.1394266923071976 2.8815516085120914 3.804314542026367
Ar 3.587686656017786 3.4127716662540633 2.760206390356572
Ar 3.1482220813430843 2.3015844796529543 1.1817989132622708
Ar 0.7962930826697635 1.3485410041431174 2.705675143792469
Ar 4.506003867162244 4.452247187059937 2.4463159361787645
Ar 3.9853534002366353 3.331025536135258 4.489516349438186
Ar 0.9306158121534007 1.1852759351768476 3.7215342537136653
Ar 1.5493573486432308 2.1697841312591253 2.3550238548965057
Ar 4.184343613210815 2.5661461304638515 3.7116716331872626
Ar 2.446073816490915 4.054159122174669 3.5544526483088723
Ar 0.13747794555876952 3.0616917285418053 4.25349047664555
Ar 1.1905087196607145 0.2920660499764053 2.7926556367224022
Ar 0.7603333296993802 4.9672589574092445 0.7933019893349763
Ar 0.48946460067091 4.146900065811119 3.8814698523939932
Ar 0.47854173892387797 2.375157435970128 2.2143444648983555
Ar 4.759013612553241 0.9839947355673985 1.3952443928301954
Ar 2.2090973481606624 1.7469499125823804 1.3699979932459343
Ar 0.2135935269035922 0.959503518635841 4.474547075651325
Ar 1.4081540010827904 3.597054270865603 0.7677629844368868
Ar 2.557648438805868 0.3153722030921074 0.9538415261795348
Ar 2.0255015191685315 3.998505102628404 1.5768949929419458
Ar 4.004318836840704 4.355745095548185 0.4843653298675911
Ar 1.7885610260894398 4.7897294285736605 0.4852866079137149
Ar 0.18949578619714694 4.929023870560051 4.6684569977885815
Ar 2.0197074533730017 4.638659099787776 4.386951865248749
Ar 0.7745194515680054 4.896179272613134 1.9225285181588625
Ar 2.663515608426831 3.855192529381558 2.395376871266434
Ar 3.102868860303687 3.8598862073851454 4.573319598524187
Ar 1.163477018480502 3.1931471640881486 4.530143886972217
Ar 2.749234796464932 0.4445823736119468 2.795444432927916
Ar 1.8871330395133137 0.35080155718266537 3.686811039809069
Ar 2.6496664903287277 4.944274034327812 1.9372077835626151
Ar 0.7158673787990226 4.018608749760741 1.3315197455909484
Ar 1.7063040106851655 5.01785156790929 1.510610185669612
Ar 3.3537812931614157 1.080928684980091 0.7414608785303389
Ar 4.0541770770855985 1.159056617727079 4.9400215115840895
Ar 1.6247379071231947 0.8714857783303722 1.0146686707096693
Ar 2.5486840877671315 0.5972984327643778 4.768823040143022
Ar 0.7796000303954502 0.7791114670674686 1.6913786743956678
Ar 4.343072834916428 0.43653209738139676 4.285688996495025
Ar 0.512726620095292 4.374029249857539 2.8719608291339687
Ar 1.408219649007525 3.841400153453217 3.5000597265567803
Ar 1.8509052286756142 2.531463307435414 0.8027169866327162
Ar 1.9041539689737 1.2330901970877153 3.072952654806437
Ar 3.499066677852946 2.2642340436679302 2.2562643228756323
Ar 4.689421198747617 3.1138894237350314 0.19586310733195128
Ar 2.935950981787839 4.314588125120613 0.5356480171203105
Ar 0.8500079993650801 0.019901175414753888 3.750299300191417
Ar 0.9174632936400081 1.9394006949654157 1.1020818253189666
Ar 2.1368438848840445 3.205664433917721 4.022576264664507
Ar 2.0177231508836 4.665453998300854 2.7599774151205505
Ar 3.7113437890172816 1.1982782312926368 2.6283376757314163
Ar 4.884588062203385 0.9619116730498827 3.2907820716012717
Ar 0.9681121618276002 2.4915156796610587 0.24663561905317752
Ar 2.633963985051848 3.3348783972057157 0.8765713816675568
Ar 2.170400764083411 3.634403688655933 4.990058246400179
Ar 2.619475758234546 1.5311413455609937 2.3864861927706746
Ar 5.024806598322639 2.170682268038629 3.306187952604849
Ar 3.759353384004583 3.368514129848454 0.7349307737189039
Ar 4.751284006665171 2.0128218378937417 4.466879890101696
Ar 3.5715064725064742 0.19890361927836211 0.06830242649007114
Ar 3.9648644215329174 1.2961779182156792 3.7423224370512873
Ar 2.9034958662968533 0.8842292059591021 3.8060550989226956
Ar 4.296909139978368 4.377918170844999 4.38023576872435
Ar 3.1468852372663116 4.922230414475346 4.049035296703838
Ar 3.251326137433904 1.913080936911556 4.4495682914271555
Ar 1.1860563150638332 3.0374515865553855 1.8142215915115112
Ar 3.906565730731386 0.16911254000789827 2.142793701721275
Ar 3.8274615799743263 0.17749070907454828 1.170554769392674
Ar 2.298657100331074 2.7955875717421415 1.8605557193030042
Ar 1.9422204804434964 2.4521818411682283 4.658447093213114
Ar 3.2249529870611897 1.9695997143197577 3.4105690175775276
Ar 0.39396703587075405 3.103921750341644 0.9535749724794655
Ar 4.697660872991817 1.5267453612911972 2.4057098031711304
Ar 3.4761686062617665 4.25076961622342 1.7623911314978622
Ar 0.22085351008852824 3.3978590527189745 2.169557503763163
Ar 2.6838026995871114 2.579802112121379 2.793318663034552
Ar 4.549207031246996 3.920685685633923 1.2308303186263854
Ar 3.0894723920722384 2.844835393446993 4.967030628284805
Ar 3.9113969057441045 1.5889309624953696 1.495268802195137
Ar 4.912049154299229 2.0724192369390244 1.4800015710412708
Ar 0.09020083978525538 2.002698847296841 0.48893655142556347
Ar 3.511581427118822 4.036620812851393 3.6656730301967624
Ar 0.12335942182332646 4.02612313421021 0.34142420209305485
Ar 1.1138834908210369 4.285187904632548 4.7991064337664815
Ar 4.5631251314946795 3.592460572370591 3.2610793873282833
Ar 3.293754169535104 3.2396223059150207 1.6508209468445119
Ar 4.458883233528576 2.698531961499198 2.57359887837604
Ar 4.10718328529444 2.6627672509744373 1.3962378896066994
Ar 3.864673107129405 0.29518066435901397 3.3290528048272714
Ar 0.7587239196108545 2.893500052699203 3.2966003041385785
Ar 4.7530713060813845 0.27774189222632834 0.5399344045493005
108
step=17600 time=88.0000 Lattice="5.038789 0 0 0 5.038789 0 0 0 5.038789" Properties=species:S:1:pos:R:3 pbc="T T T"
Ar 5.025103863597849 0.09210558470071116 3.726232496436455
Ar 1.2783347456541791 2.15533625748719 3.7591595837464085
Ar 3.799011712388827 2.5986576557618624 0.061062216879233314
Ar 1.4331945299720328 3.8863511876650905 2.3349035614545945
Ar 2.943836217034082 0.9540451229993365 1.5626363334267195
Ar 2.1028269872116145 2.8516476103124377 2.8940040121824877
Ar 4.9449128346421345 0.49008422117823824 2.4773922713130148
Ar 0.2721109054800938 0.8770399177471387 0.6801530247837605
Ar 4.694432210361519 4.955705362202719 1.2301383022436734
Ar 2.973417226349772 4.898485761273491 2.9409358368559726
Ar 2.183460375949032 1.510196127969987 4.836323453189681
Ar 1.5082202165275391 0.02894582207668124 0.26730267965902055
Ar 0.470773806788815 2.0949281086784004 4.544549826658202
Ar 1.0435067622212406 1.4324118003362183 0.0386208949988052
Ar 1.6814332578435998 0.8192358041088705 1.991121952219599
Ar 1.8206545484797299 0.6296732870730389 4.388271247313008
Ar 3.5605292954038688 3.0593848817552836 4.139180063569269
Ar 3.9795553659384035 3.510372008933543 2.4820488880466827
Ar 2.831465443185037 2.1635309668654834 1.104911381357343
Ar 0.6261089648789375 1.3433380312070182 2.158444420731855
Ar 4.46638294951042 4.511301314214655 2.468070780323955
Ar 4.48198012833505 3.578191613591325 4.47283128995688
Ar 0.8716570620869158 1.104877120519369 4.08693354388551
Ar 1.5614753420179546 1.9141186083863864 2.6480640815826963
Ar 4.253939532189468 3.229263118213121 3.45522702801471
Ar 2.498328962052675 3.759106700702802 3.7148434394584378
Ar 0.19021543820471432 3.119240928673991 3.825390541506953
Ar 0.777639318849496 0.41320780035125865 3.2612361528119935
Ar 0.631021515180977 4.720990196295096 0.8386681604206475
Ar 0.42623824268811644 4.008496838521617 4.241098143765933
Ar 0.5633668747558265 2.4279720308902992 2.335643735359453
Ar 4.461574338784135 0.9087527351796911 1.4185166699493297
Ar 2.1331328416702995 1.849067328675083 1.7268116629983714
Ar 4.911450307008868 1.1826245947987466 4.413247577480077
Ar 1.7174722843027797 3.251297349076451 0.5692918699376749
Ar 2.5737667067670866 0.20236095568576573 0.6453720432628629
Ar 2.1160752115866694 3.8239214651281777 1.4311223728408111
Ar 4.593887453941388 4.381899936286345 0.42232448220009555
Ar 2.1706507174134857 4.237448224737225 0.4309096384616662
Ar 0.27543466757735796 5.031683364997385 4.849155117963612
Ar 2.2364624628636722 4.685552074356619 4.468348042707018
Ar 0.4411194940828496 4.382677241747208 2.2102671826134586
Ar 2.669524783828962 3.9202257588223945 2.4531895061542706
Ar 3.1175597679958393 4.053365130688404 4.624016266263066
Ar 1.0442358151959645 3.1600270491157474 4.374661022320395
Ar 2.6138064844625974 0.841587474028695 2.52188469924808
Ar 1.9845054083927227 0.0743526885623199 3.36329458355614
Ar 2.7638328830007404 4.872193211367867 1.692309999559316
Ar 1.1370983816090172 3.8824797145777246 1.2979010370144815
Ar 1.7453371283080323 4.826284567839204 1.508226253717108
Ar 3.1042594104881958 1.18764452866328 0.5278563848777649
Ar 3.9277723223304126 1.3276949171955414 4.927810251872351
Ar 1.5365806989969908 0.9818084524995639 0.9454406918911042
Ar 2.8548074988833445 0.6514481755834289 4.621774874537723
Ar 0.7358066122227395 0.5278044064576786 1.537273497554697
Ar 3.7325981692538224 0.8946401840398649 3.9060754059894744
Ar 0.729258532372334 4.387033104667342 3.207810703514068
Ar 1.5443582536345757 4.094638869430151 3.7763127275661734
Ar 1.8278173625861713 2.2900597395579014 0.7078929316401154
Ar 1.5928299240421786 0.99924947846391 3.062884270005104
Ar 3.804067214319028 2.389009304940253 2.5273337828150924
Ar 4.793998864169774 2.911134269436075 0.3357345368295552
Ar 3.0992491263659043 4.268714487523159 0.9800462866826793
Ar 1.1011556497097912 4.97603077264972 4.187798888955164
Ar 1.1225090676460687 1.8456614111696694 1.3759128630681716
Ar 2.404643695892004 2.5535785835373814 3.8689364505854895
Ar 1.3412002783687087 4.978793000582679 2.4479520035883526
Ar 3.5976846165398872 1.3107306177853548 2.8532681094991683
Ar 0.06019287107827713 1.0994597464274154 3.301525040055742
Ar 0.77976639548204 2.5329598082704274 0.4287788090560839
Ar 2.839131399601727 3.256657200593386 0.860574744148062
Ar 2.0681171293154117 3.513191927173229 4.596129920420344
Ar 2.7760502213363383 1.9156340238532166 2.6534644314492617
Ar 0.23958555938176734 2.187171644493325 3.3010246739969022
Ar 3.932145258399599 3.5865215721304122 0.5228281016658188
Ar 4.5432452955206974 2.3487706428751847 4.372436456155654
Ar 3.5155148783028127 4.983402264905492 0.04499887867158604
Ar 4.346684746616928 1.7017950203336036 3.580214026947444
Ar 2.5452431804945213 1.1455658037075325 3.636915882854632
Ar 4.307327047175585 4.628439784964091 4.311085975144417
Ar 3.174115159581436 5.021633069359864 3.9431773882445444
Ar 3.1340475992067702 1.6985364557560543 4.388217707376378
Ar 1.4139720658255823 2.796541584091064 1.626250784001489
Ar 3.7583847885053343 0.3782917582603551 2.0759830100514733
Ar 3.635191525147392 0.3389048099214517 1.0090826307755063
Ar 2.5560023423036817 2.929933141688466 1.8579188456929123
Ar 1.7311769786631384 2.4355749115200553 4.684977070778935
Ar 3.376742250926691 2.140150255014541 3.4730670554080474
Ar 0.3368672113282324 3.049669871405374 1.3197984087020467
Ar 4.614647244178773 1.751282973663162 2.3875351864355356
Ar 3.745117351405419 4.347407528348542 1.7737371358899607
Ar 5.029912369431977 3.441079214417366 2.785360866152284
Ar 3.119274056963105 3.201346919607535 3.0127690467688955
Ar 4.58492929119819 3.8570225426021576 1.312326901669492
Ar 2.7630557911239184 2.6742161229804147 4.871954780721397
Ar 3.767821952316464 1.604657413483946 1.6889181662111619
Ar 0.059127645088470446 1.913502452266059 1.361773064487943
Ar 4.826590662234041 1.7563482635472276 0.30465666380481354
Ar 3.690705306054521 4.194673396755638 3.2686008081389786
Ar 0.436037158992088 3.7406048131448615 0.483371414103327
Ar 1.2369421223512902 4.18801800481044 4.869776600352606
Ar 4.715772448763564 4.148753909195045 3.5661219589356534
Ar 3.6272160089837437 3.246783138170623 1.549587922070095
Ar 4.6082949985005035 2.738681880742018 1.9210641309970644
Ar 4.0398289763183435 2.393449235367914 1.1056536599429188
Ar 4.075979228426715 0.28638153165648245 3.1384483461683543
Ar 1.278982025163247 3.2579031534303193 3.2722078367983363
Ar 4.390973964031127 0.4595254007799107 0.24790463884765132
108
step=17800 time=89.0000 Lattice="5.038789 0 0 0 5.038789 0 0 0 5.038789" Properties=species:S:1:pos:R:3 pbc="T T T"
Ar 4.884388152616629 0.3887032784394199 3.9313443520459592
Ar 1.6097349337365474 1.7534776525332054 3.859560382494592
Ar 3.771851359481418 2.999291815585508 0.37032563140055047
Ar 1.0452692258875977 3.3448637704059534 1.9841120102678138
Ar 2.74722748735896 0.7084681338375074 1.7042457780812381
Ar 1.858076806459749 3.3028413948305526 3.0586175324576503
Ar 4.701745092805606 0.6631788567034524 1.950563609987395
Ar 0.3185149574062056 0.49774777045070084 0.8835845946483077
Ar 4.5563694220933275 4.791503740006699 1.2651258328704285
Ar 3.3110360333045 4.619579198866142 2.8409917839048
Ar 2.1996543635409442 1.5048400984490478 4.691912357655577
Ar 1.6374140087385 0.30382531801254237 0.2523903010417494
Ar 0.7819093506676102 2.2011759682981746 4.592270722466208
Ar 1.1495697353316763 1.2428992719828469 0.08199235938066655
Ar 1.676651084886455 0.38738056940454185 2.308631346630536
Ar 1.6207461335391913 0.6944762762698329 4.1489146534831365
Ar 3.256495344183736 3.006073010559966 4.428794968072587
Ar 3.707301651708168 3.581478178196965 2.509208219207974
Ar 2.697832752361781 2.469862422134482 1.2102180074076936
Ar 0.9558008047577655 1.3739907257753095 2.599605089509391
Ar 4.73326613516804 4.560736624872223 2.404205316260177
Ar 4.245635275650724 3.5275362631424785 4.435232865819018
Ar 0.6499423067501191 1.135837494600634 4.146505070000548
Ar 1.6351368335308811 2.369350843976812 2.5976649943558665
Ar 4.117716610404339 2.9994309986901606 3.418926863340998
Ar 2.4853320000002666 4.016155069484741 3.5866320531438216
Ar 4.977455887048366 2.777173096353547 3.993588089397869
Ar 0.876354306854467 0.4933849091889096 3.28208638866927
Ar 0.385809411262509 4.342627035516707 0.5381983030365817
Ar 0.16511821338438412 3.785516051565577 4.368631436178724
Ar 0.495676239211897 2.334724175938214 2.3088596488755018
Ar 4.246217218455524 1.4401966639253452 1.2656370122457115
Ar 2.1308828847783925 1.538768974775186 2.1626860604929137
Ar 4.5732306414287125 1.4062640722960036 4.244993766731611
Ar 1.7850291657870236 3.0328848736678515 0.7777906219170858
Ar 2.86154292956125 0.1721897276056814 0.7203598385483442
Ar 2.249063263158519 3.699690343561411 1.5261260919030128
Ar 4.731631482571234 4.879912171937184 0.05716447511907717
Ar 2.033622392047867 4.3846927256057215 0.4353850474390324
Ar 0.6750512465804117 0.2768756044722657 4.846988461354878
Ar 2.1348750724689602 4.717713984400603 4.439078649272488
Ar 0.39576377613925234 4.250312938419976 1.6481921444082974
Ar 2.5973438351260896 3.898421673824803 2.4935263531251435
Ar 3.410681043829205 4.165778438703782 4.673720824812447
Ar 1.111453275176424 3.148014087374222 4.031496931645228
Ar 2.9491116871481577 0.9026050846889314 2.751396015022778
Ar 2.270776978492336 4.853083469284803 3.084689641056903
Ar 2.3196134253706187 4.692771149067404 1.4985312292783577
Ar 1.185945676020153 3.9557067807377204 0.9624588287945168
Ar 1.2302937435774015 4.968314947052708 1.0546720641450806
Ar 3.12858819442281 1.4479169855516196 0.8216512905588496
Ar 3.970052376204509 1.9604681225761704 0.3693565435654435
Ar 1.7396746782234018 0.959920600563049 1.1365249870051874
Ar 2.8460855371102953 0.7593197341764274 4.928525685406221
Ar 0.7291242188173158 0.2744260816874224 2.01820541863533
Ar 3.707768517445795 0.8784723479604636 3.9283627637498135
Ar 0.7210301626739112 4.36610722633006 2.7740583307139457
Ar 1.4379592935061782 4.163572040068988 3.7784010039084945
Ar 1.904507519870809 1.9227029294649527 0.7120988364673114
Ar 1.9035539781387751 0.9884942405282047 3.1469898963031935
Ar 3.5949383420228167 2.515890425685013 2.684632557233984
Ar 5.027430337506047 2.774491114244608 0.16265704080602603
Ar 3.703424861325178 4.458938780957672 0.6636156463211893
Ar 0.5543232602237341 4.631496935764576 3.7642185349268344
Ar 1.1376485984458244 1.6432223413224871 1.5191540182743597
Ar 2.2451821366584834 2.6735162906245797 3.9003017482340314
Ar 1.5235770654563145 4.3385545550072875 1.9748502346755104
Ar 3.966333422682711 1.2815727998247233 2.9221443535611415
Ar 5.004011213932496 0.9764161850729967 3.0207824266573566
Ar 0.8980781285123194 2.4798353052198063 0.8056775052322945
Ar 2.730954700353951 3.442744030538455 0.20241031015928104
Ar 1.9410501620663019 3.4722048929242577 4.5544976932295995
Ar 2.674567412943061 2.1400229196141254 2.886342090535138
Ar 0.7475357069097659 2.0491387388466853 3.4849322721375753
Ar 4.514098031727768 3.823049780131008 0.5005601214130094
Ar 4.061076558506528 2.475142877582348 4.501600957461845
Ar 3.686764365624766 0.08983525085717625 4.840191140118512
Ar 4.798094956405925 2.120868012725468 3.146714668565748
Ar 2.737188138616445 1.1857850116040762 3.8614690769568973
Ar 4.0725529735107395 4.648572847922433 3.9704921784615568
Ar 3.0346861121557716 0.0356592107622344 4.044148867430302
Ar 3.4283192313136097 1.598808574144911 4.59500410396363
Ar 1.7429612611532672 2.6625602430422837 1.72480484213537
Ar 3.6843520666376497 0.32971093892145037 2.1818008156883657
Ar 3.783605740609145 0.43446012152188507 1.1182737596597827
Ar 2.7641932048655167 2.956726591749627 2.0801922900048444
Ar 1.7644949432970165 2.416322469439191 4.781467408953709
Ar 3.443555944281183 2.240843164248896 3.7127090277573447
Ar 0.23893295575443413 3.412739232255137 1.1363751070463899
Ar 4.698304188944402 1.719205914315952 2.2214016661503497
Ar 3.5500361126840922 4.3994060746697246 1.7388176381858105
Ar 0.18007656373351857 3.572566796192172 2.4879329539008306
Ar 2.958173934754316 3.1335347517845684 3.276415565911002
Ar 4.328496583206297 3.6732868028886148 1.5357803572913016
Ar 2.9242926214365093 2.2811906398931487 0.10919201929228775
Ar 3.4947999982369904 1.403086375843001 1.9487295689243846
Ar 4.922432775057461 2.4594179470985664 1.1383109675517602
Ar 0.09059138815651885 1.4987397776910207 0.40344072502874473
Ar 3.509824692597854 3.9021579920576968 3.52153198948248
Ar 0.9357379662778355 3.323211164481106 0.03904444657499321
Ar 1.172213656871033 4.291505286013442 4.838119647098562
Ar 4.63641272586048 4.010012660514125 3.392435388903332
Ar 3.3678834226483216 3.4372153840226374 1.3247896514504347
Ar 4.519514991260132 2.8334481054948997 2.322472806461115
Ar 3.8469048667514567 2.476547930760034 1.5668949014227862
Ar 4.254722276965491 0.0968684663865354 3.1551074323742787
Ar 0.8154495259702201 3.0684044676574187 3.1089510572023116
Ar 4.226853893085884 0.921918789263947 0.14239547329154076
108
step=18000 time=90.0000 Lattice="5.038789 0 0 0 5.038789 0 0 0 5.038789" Properties=species:S:1:pos:R:3 pbc="T T T"
Ar 4.87326434494372 0.3978558285958588 4.147089223200003
Ar 1.5352120215743346 1.535503783708729 4.110653744982521
Ar 3.5722748613721826 3.4611998607372625 0.48893043517778434
Ar 0.9367485822945538 3.2232882842565496 1.7616458701854603
Ar 2.4060335572624134 0.41215118209278967 1.987913153377301
Ar 1.940890512770246 3.0770124468792215 2.983952512178368
Ar 4.64993924153066 0.824772486821981 1.7610503819458188
Ar 0.3794313541932601 0.8758653643989347 0.46014997606467667
Ar 4.933688266997318 5.012787389816187 1.2017387399540722
Ar 3.4285400228623493 4.720370201728103 2.6800277654513907
Ar 2.3659302535185476 1.4709969164021413 4.917481069360932
Ar 1.9953831795560208 4.879173030456117 0.13433697671518485
Ar 0.8764797828482566 2.198928347363147 4.605290760540971
Ar 1.2870076909133379 1.6753911396041639 0.322447647266485
Ar 1.3819236812777178 0.37857543597701593 2.164600818148705
Ar 1.4981598642387681 0.6690870568626321 4.641235775663006
Ar 3.0414805369200906 3.273521172148035 4.113924557899943
Ar 4.01783254090286 3.819482535321971 2.451374629034983
Ar 3.0378132916633906 2.57860011804967 0.9754905975066063
Ar 0.77296026547715 1.121798012194575 2.803128599875033
Ar 4.2294035580338685 4.773465637171533 2.04019568410573
Ar 4.202798409813578 3.5533709471466377 4.397332862913368
Ar 0.5578395166753511 1.1084598931718677 4.416358002681389
Ar 1.4464011584379848 2.1126751336731706 2.877936512097992
Ar 3.901370725923781 3.0636754551829513 3.6376658575966068
Ar 2.4980479548851244 4.123772173333365 3.649212279169892
Ar 0.08988562675735066 2.8934728288097173 3.8000442114709663
Ar 1.0417746068964227 0.45632520578927377 3.6592757018200994
Ar 0.6864558735132565 4.554168432118267 0.5030432916964719
Ar 0.2241279096096886 3.8432888101284277 4.333101270538241
Ar 0.48573052532846456 2.0242089442537248 2.430687479454555
Ar 4.572841719392735 1.6838664346834857 1.1850133355876196
Ar 1.7653772876214977 1.3175786956593123 2.1312477750958125
Ar 4.583343343648689 1.546615046895331 4.236270609480188
Ar 1.7655033479454691 2.868443868658615 0.7878738643510353
Ar 2.744526128028968 0.26493441621160513 0.8612159257240041
Ar 2.637973939285679 3.576792312333973 1.246995476818181
Ar 4.7612710720991664 4.9284051483247975 0.2360398911089079
Ar 2.7769079209119836 4.311338441055127 0.5505784704240999
Ar 0.6925424228358661 0.014350970689601674 4.712741792321061
Ar 2.0157729995242257 4.894350555059748 4.038084418505846
Ar 0.666519656110289 4.275380359809387 1.685572729396827
Ar 2.639124110027279 4.105093008914252 2.5002661801748562
Ar 3.150693469198302 4.128247317618824 4.611622965967451
Ar 1.2958102453369533 2.713290331432534 3.7298911768335468
Ar 2.908542442356288 0.8310500181714237 2.9668387036302386
Ar 2.1467796666932673 4.980485683150449 2.9760182408492875
Ar 1.9543787159121526 4.713457500681135 1.4157746787539403
Ar 1.7293200279398793 3.9725694165576515 0.6844310974229808
Ar 0.9353574328326514 0.37919012834878707 1.2370353799870542
Ar 3.054466437037119 1.3142570714946784 1.0106127681565729
Ar 3.8411217008265783 2.04906347575794 0.47198301604756693
Ar 1.7972149903820098 0.8763987560257348 0.7806458678511582
Ar 2.807635139761538 0.4664834833984402 4.810192261856186
Ar 0.27783353788805953 0.2876936121926998 2.554715333945392
Ar 3.7936631455292136 0.5970880707698736 4.235315843781173
Ar 1.0062531520063438 4.674272280755993 2.8503972828486948
Ar 1.0062933424504892 3.7963379368763355 3.6201323536546917
Ar 2.047012900184376 1.8820274535972064 1.0527826283339463
Ar 1.7830143461032595 1.0858674330745786 3.1625315554195095
Ar 3.508943416458679 2.373543949140246 2.778312520626462
Ar 0.1352444892443162 2.8844359794088876 4.869820022381359
Ar 4.042472135581426 4.30927866388197 0.9636448017114198
Ar 0.26528469537812105 4.672624998473625 3.544653033422295
Ar 0.9589522537963745 1.477454739597584 1.3024938318449741
Ar 2.300212986753085 2.284167670684919 3.713130165976046
Ar 1.5968130115748247 4.057224663320932 2.265662519071258
Ar 3.6598727697039504 1.251437350072332 3.4223033103128704
Ar 4.7782953390409615 1.0417054729188622 3.1185568704906395
Ar 0.7504682984196918 2.4864312202578827 0.8893512238786969
Ar 2.463180026812618 3.4785482821634464 5.036510312843314
Ar 2.010888435438707 3.303978118696366 4.106727654145353
Ar 2.569168830475081 1.7726716884647524 2.7754823706798373
Ar 0.4918448105246902 1.8406525159754281 3.6591500477829673
Ar 4.831967852045345 3.7628549099377926 0.35832282107569896
Ar 4.081598687183395 2.5474985910906374 4.6063175178279785
Ar 3.7489825142546156 0.03008690745489737 0.176530439552971
Ar 4.484985813558416 2.1270979009060005 3.410581217414263
Ar 2.571917128616573 1.0988400189890004 3.9951716742446854
Ar 4.240059577676145 4.5321306566699135 4.102364380246487
Ar 3.131897239599899 7.988358502064585e-05 3.606742705300505
Ar 3.600059594700728 1.533558024936251 4.588534907486823
Ar 1.6074965750095773 2.38041299065375 1.9492421287850352
Ar 3.8206129115401337 0.7517310272630852 2.4416712462255434
Ar 3.9661132643980537 0.36787945093839475 1.0955911748625289
Ar 2.6860488891863796 2.8042380532392728 2.0694775838080197
Ar 1.8250826840050542 2.4344908828581295 4.9331098993481435
Ar 3.420820959246305 2.221176559889919 3.7681277816990932
Ar 0.611659020108335 3.544320193964758 0.7809251492109951
Ar 4.273954681694491 1.7429227228803121 2.267298120673545
Ar 3.189180311091832 4.566445101054254 1.526767350578316
Ar 0.045372543712302524 4.223453185685244 2.494523275222832
Ar 2.9835626797205266 3.1946601634364247 3.0760786363104446
Ar 4.785216003574981 3.5706680345886714 1.6152569679027704
Ar 2.9938997741306372 2.3608937647003114 4.935152620961564
Ar 3.142738299573743 1.6946706004888554 1.9333628406152905
Ar 4.721086548999689 2.727064656409236 0.7770481989613414
Ar 0.05963878504117439 1.8636067507482836 0.08377394260053794
Ar 3.548719711488634 4.058446184281259 3.468800396799342
Ar 1.175461093746661 3.3020084849806635 4.990414815042247
Ar 1.3817530958585664 4.185063207712975 4.538109575041955
Ar 4.634685351422526 3.765178301994347 3.3558451366924213
Ar 3.608469849428545 3.5293497598155246 1.648293328663503
Ar 4.581450999339558 2.848448500594831 2.511506870861563
Ar 3.8839597642014585 2.369380208035152 1.5031452991671694
Ar 4.378127923588171 5.007257359982287 3.0769935856353485
Ar 0.8035151291945156 3.0446873906491247 2.8198650111983166
Ar 4.290921888964352 1.060442552247993 0.4212768546746837
108
step=18200 time=91.0000 Lattice="5.038789 0 0 0 5.038789 0 0 0 5.038789" Properties=species:S:1:pos:R:3 pbc="T T T"
Ar 4.900453532426438 0.6322010629737254 4.026550698814249
Ar 1.4220666542103944 1.6792788934225034 4.10761814462307
Ar 3.5964907355220355 3.093622641548214 0.26808936980263165
Ar 0.6851134475262606 3.0512615330408774 1.6956161439067394
Ar 2.5748560372556404 0.3761105356650484 1.9796417058366014
Ar 1.456051339134527 3.467132052248081 2.9292079030404863
Ar 0.5716930396962462 1.2620944647189394 1.5614975039051913
Ar 0.5045496192280082 0.6831178361530823 0.6117867518041983
Ar 0.24328448262568486 0.19209978948090123 1.4701312387924794
Ar 3.205906886360665 4.683566099929433 2.575772010648594
Ar 2.2888408741004413 1.4512999258536323 4.844689420669685
Ar 2.0533141347670747 4.763781779154848 0.03278011333410405
Ar 0.2916755311094365 2.277282211595917 4.706653070691297
Ar 1.1019495663278218 1.6140964243631128 0.6202434395613149
Ar 1.5074736620268403 0.31347680199879363 2.41491637236839
Ar 1.4573329955575105 0.6880443962824537 5.009250530439384
Ar 2.9869737988422647 3.2849841431306266 4.308905430082885
Ar 3.96040420286975 3.897823925391473 2.4403783987144116
Ar 3.0436532591590955 2.416162990194044 0.9565886134829381
Ar 0.7411417435733005 1.0692717308054545 2.7375773957894376
Ar 4.239060025299657 4.848740197155037 2.215740595499526
Ar 4.164659096911357 3.6488466860325057 4.602326208802279
Ar 0.4939200047946783 1.2372183678002653 4.589585958593787
Ar 1.317267792224617 2.234526061259356 2.8555909707935814
Ar 3.724234766065289 3.1632763706767784 3.334168507255827
Ar 2.484657820380065 4.270981766948905 3.222722392932096
Ar 4.986898285666926 3.1319941146885037 4.075801026119624
Ar 1.0477356554791941 0.6203805820802902 3.750272767090932
Ar 1.156237287124297 4.862190357136023 0.5462376989662243
Ar 0.194034848985561 4.11356446660947 4.74527894718733
Ar 0.3406439735238285 2.03207120279477 2.3842740165590928
Ar 0.022790564035144595 2.1360813682294837 1.381697943551193
Ar 1.8887417112388711 1.40959016869273 2.1084216724741824
Ar 4.40835506398662 1.4834925605495093 4.518969127903573
Ar 1.776051087227525 2.7091302053318835 1.0470863444582987
Ar 3.3093150247087473 0.05133393179448724 0.7473113100202746
Ar 2.5993142898787656 3.431175095587029 1.3594459760849753
Ar 4.522056521444097 4.872312121821927 5.020177129081704
Ar 3.1782770307488235 3.9694803531682523 0.4676667425284653
Ar 0.6991351547778901 0.04837547691331536 4.673997623984307
Ar 1.792502681506511 0.13550678070338787 4.185870424386964
Ar 1.2233587316212433 4.491542689225744 1.7189415412699698
Ar 2.853782884483145 3.598609800079428 2.3690099794966226
Ar 2.371332248121096 4.208952552917433 4.213972312497688
Ar 1.102395175933671 2.7030723304023936 3.9183281822958613
Ar 2.7995451177944046 1.1457741805492694 2.7377231495577234
Ar 2.3058134035062228 4.500871355885128 2.238518784991678
Ar 2.1929648425223602 4.39196324639921 1.1356159793033858
Ar 1.4752919434857708 3.8864275113445874 0.5266779908443489
Ar 1.4712307525590989 0.8126368660755644 1.2747519504811318
Ar 3.346150448509285 1.1874780014429556 0.6292812075215585
Ar 3.9854977024426317 1.9595710572552756 0.4496692610092676
Ar 2.247074536778835 0.40361153014807244 0.761235415712018
Ar 2.78427254273488 0.4933414115147735 4.607849454071661
Ar 0.493589164285569 4.975563844343335 2.5504951818718204
Ar 3.814246280931859 0.4376936750641112 4.430170699395351
Ar 1.4547428350867921 4.5495993469637686 3.3438490196112336
Ar 0.6878763771101942 3.8031273752021693 3.681122061117071
Ar 2.279363880297026 1.59690001227041 0.7805476300896224
Ar 1.821709659884157 1.187936956879042 3.2097654511159175
Ar 3.5374830890147244 2.051741080897372 2.751934918877945
Ar 4.80214765536369 3.034223124937525 0.14752236333930627
Ar 4.2448236581456165 4.816113100494549 1.0493418682413642
Ar 0.4681944994696218 4.799400694470262 3.6718289583778727
Ar 1.0910539114114994 2.101143554640488 1.6448323993846998
Ar 2.294827328187309 2.3675428896742594 4.070914012588384
Ar 1.6750371451313315 3.5504776097864186 1.7869367726111387
Ar 3.918308741975243 1.2514157841033426 3.4658526902299625
Ar 4.856583885944202 0.6968618799898285 2.3973260680379593
Ar 0.7476246714978333 2.5341132224743337 0.6544480754284064
Ar 2.1273539370383032 3.2617556345667227 4.993777670373721
Ar 1.7599762830544323 3.419281829792923 3.968609098424579
Ar 2.4277299429112076 2.168595580274886 2.962751294730633
Ar 0.294778807387407 1.7283611816804847 3.678556065137495
Ar 4.3997052650490565 3.9533710593853995 0.5020291599279131
Ar 4.059781700160296 2.5391358999729774 4.52736957524954
Ar 3.467488012127619 4.502304597039532 4.673154562441753
Ar 4.542172788325218 2.0549747192188312 3.26694047189058
Ar 2.802969529800239 1.3939855534844288 3.7661155438376177
Ar 4.522633295534869 4.356450745420705 3.9723131584577396
Ar 2.8644902305245146 0.18000045283349442 3.457687465602503
Ar 3.3146292552272243 1.4771122607222742 4.647651694771672
Ar 2.0600604983689546 2.646013235577735 2.087789341941629
Ar 3.6801092019878667 0.6068191885732542 2.563787017361202
Ar 4.024797127376891 0.6652911382014695 1.5103009996780472
Ar 3.057546878259964 2.649896023937077 2.0588333812313095
Ar 1.5769702477493859 2.372823486814163 4.977402179246295
Ar 3.235303892039763 2.375318597589691 3.728946212524472
Ar 0.5270643733832407 3.5514506947285502 0.7320470560859821
Ar 4.3335717514179235 1.53800039276526 2.1535383482504193
Ar 3.23309043225722 4.282552313033314 1.5754187394864225
Ar 0.6119180469417598 3.8174555703404054 2.4223131469025754
Ar 2.4365632657043603 3.2012307126694948 3.2508751698642517
Ar 4.717563056170829 4.0758395215096765 1.5311714822252536
Ar 2.867478145547576 2.3493982659311157 5.0190095291023145
Ar 2.979287821107389 1.485389414475522 1.8296331143096098
Ar 4.73152922789308 3.052264415735112 1.417420105886441
Ar 0.021685358450844225 1.6927884969522498 0.44466260364463406
Ar 3.565596557218581 4.173971823502226 3.4942246328464783
Ar 0.8985867010689547 3.359557835091371 4.729110752118275
Ar 1.2124321335316461 4.284222470940041 4.423562061508528
Ar 4.79782111019187 3.7885152313722226 3.1060705087814715
Ar 3.6648778059879388 3.3465593160059943 1.5049021402684581
Ar 4.299336517834041 2.8011907715585136 2.4315606747090532
Ar 3.9527684366721245 2.3356441010878766 1.4527565246605896
Ar 4.107021077116601 0.0873471564552744 3.4441557928919884
Ar 0.27664523120661494 2.835771066785106 3.0703274243278473
Ar 4.31702314463566 0.8392580885843445 0.485173005756772
108
step=18400 time=92.0000 Lattice="5.038789 0 0 0 5.038789 0 0 0 5.038789" Properties=species:S:1:pos:R:3 pbc="T T T"
Ar 4.7847950961417185 0.8964865408423212 3.5936129358912976
Ar 1.1529684697453364 1.3629489526040166 3.959139562517272
Ar 3.577887398360983 3.0696580745419526 0.20319642776001734
Ar 0.5995538441047847 3.317866477468094 1.940194667095417
Ar 3.515968618181365 0.5108130305417417 0.965029163177423
Ar 1.6056410288911207 2.9804345572151463 2.8520841892954993
Ar 0.642665434926257 1.3130020377115708 1.9584093587369733
Ar 0.2107458088868757 0.6858392745367285 0.8680768284390465
Ar 0.5856922029006751 0.18403689134258105 1.855635339367665
Ar 2.6713669485367793 4.68647821605926 2.3936544147973566
Ar 2.5190983393507835 1.2323880920464398 5.026967184821076
Ar 2.2703559591236697 4.524541471903514 0.2781049249663784
Ar 0.6513572556956055 2.4254842987518033 4.894243248027309
Ar 0.8616673940307622 1.6069175860565605 0.9317622824387974
Ar 1.718134045489717 0.11276356498234036 2.251511713325353
Ar 1.088464968684747 0.7781118899963128 0.027343565946114083
Ar 3.0652640722504865 3.2732303552769793 4.1246471628679915
Ar 3.598224348936298 3.6725083085487786 2.391654348827007
Ar 2.9769509252167117 2.532132664982381 1.000152621522882
Ar 0.6723063908949114 0.8273093173950551 2.9259699032671853
Ar 4.2351752751861 4.776816710210802 2.0857784560924473
Ar 4.266499337928277 3.790812753863071 4.737050535531916
Ar 0.23413957127902965 1.2662678777920615 4.532715476950224
Ar 0.772382676968075 1.94269815132928 2.8062403020772573
Ar 3.808538505566601 3.4147576483155104 3.4384503402107733
Ar 2.896669290889106 3.9774939482646094 3.3170633719098745
Ar 4.960477278819763 3.346642043538651 3.8591124841783864
Ar 0.7026685051141692 0.1864145484366316 3.7616769367258818
Ar 1.345606865805413 4.942997916142678 0.7171219335945905
Ar 0.5174409706048108 3.5591707123469885 4.851449258077541
Ar 4.836604436485139 1.6143835930330754 2.6115275623547536
Ar 0.06359839117362678 2.157822699531675 1.6245609878766645
Ar 1.6366112723551978 1.3326822383725416 2.2598289656736847
Ar 4.331436359452064 1.827566867465897 4.302929200540738
Ar 1.909898457283872 2.725864681023615 0.7148028927039688
Ar 3.5645638301187446 5.035362900441967 4.984033405470284
Ar 2.5654647212901183 3.5254473433515017 0.9618698590227405
Ar 4.5900610633864884 4.919893460092435 0.27981447533658227
Ar 3.274609492922379 4.027802113309525 0.3222125935214523
Ar 0.5713406250303833 4.926371087840101 5.0083610241897585
Ar 1.6577044561763488 4.99969291426732 4.509114319089888
Ar 1.1730591089490052 4.387929546122706 1.7983656756158568
Ar 2.6989587326922018 3.661596079933648 2.0479966536195002
Ar 2.5714441317326244 4.406478986288302 4.259198677665851
Ar 1.1283215466001817 2.3882262521245896 3.8916610235530538
Ar 2.6385997284546128 0.8308395530839814 2.527441188679604
Ar 1.8299055967472262 4.052968210903886 2.558312992527339
Ar 2.2525026090306755 4.410657755833143 1.339498122102738
Ar 1.3359508637909236 3.797429489040638 0.8070844087244282
Ar 1.5805017075902659 0.6602719125252782 1.4153825738452672
Ar 3.3259015072065408 1.4816678249336237 0.5710812353724637
Ar 4.000069706019789 2.074962773303753 0.19930322083137966
Ar 2.560129417026547 0.47633400427352346 0.8487957492020111
Ar 2.8412763717997684 0.4373922565041176 4.336288761062956
Ar 0.9886729956247599 4.704372505215274 2.7393118617442442
Ar 4.029998072453852 0.40952519257594966 4.111416699471663
Ar 1.872339119113304 4.6125558346929365 3.5055816456206803
Ar 0.6759913387636589 4.245666161340023 4.066735117461559
Ar 1.9194880273599628 1.770914172062357 1.2795219369661202
Ar 1.6398826948097813 0.5442930987894832 3.311207484760404
Ar 2.9316989204881003 1.8058617463230457 2.79930863666351
Ar 4.735339459642457 2.836251355239312 0.26423273318388124
Ar 4.535717541848137 0.2162397296592015 1.3020213308506856
Ar 0.010431189594541448 4.9564331174044 2.937368763091
Ar 1.0695949909483433 2.3684555456561216 1.870665268084681
Ar 2.3143131849501177 2.5528596594374595 3.911991668284318
Ar 1.6609020291219396 3.3577289558389807 1.7377684258719581
Ar 3.7435101102355164 1.3353900444020381 3.5322020320767797
Ar 4.674840595381034 0.7205740462943102 2.240926776522485
Ar 0.6167557973426879 2.9488780078131565 0.8296864551174302
Ar 2.3857228414794505 3.2784333028484287 4.979390162172784
Ar 1.9833509403145908 3.5324799807877394 3.911250307027412
Ar 1.8865927042977544 2.0026637765756714 3.1827521029614387
Ar 0.154486429772075 1.8702481311443262 3.6288660664657453
Ar 4.085766476800874 4.144950840027276 0.9370294926988871
Ar 4.117624275764632 2.839948464628705 4.267131387049952
Ar 3.659961501049974 4.383188596040742 4.09415023024449
Ar 4.07934463694286 2.392564248323577 3.1035418474965324
Ar 2.4778852569189103 1.3968840105592715 3.802743700689275
Ar 4.7230159062117005 4.536400205466633 4.053991323881758
Ar 2.787977327390071 0.08533682828682129 3.3308498115282683
Ar 3.5190683383176387 1.2470330372471496 4.577205760210832
Ar 2.2794965351666234 2.450710084850431 2.1745495991549437
Ar 3.530942882759077 0.5020576357389261 2.003694573103791
Ar 4.529823619502482 1.27106245263586 1.403137221812246
Ar 3.4344611338288824 2.6144672934733215 2.22086968628762
Ar 1.603781080948342 1.923292291121899 5.0261126131827245
Ar 3.3331985526302677 2.1767613014063256 3.887229703363443
Ar 0.22857175324087806 4.178726006311784 0.8112111121688955
Ar 3.8166502146404633 1.4831894885977708 2.3013870595933397
Ar 3.3518163095477576 4.509873409595297 1.620127066912731
Ar 1.0701048001831026 3.788828217469763 3.2588275585588473
Ar 2.8578668995498364 2.8507541811353088 3.088153844337577
Ar 0.08391468363657786 4.233980596954523 2.151137646856481
Ar 2.776303131280101 2.2896703068003164 4.878043919685173
Ar 2.8134162204661153 1.3612468883741575 1.5995779256948157
Ar 4.662530878020044 3.2881997568452834 1.3454337179905795
Ar 4.90508287324657 1.7733563083428712 0.4991782839882739
Ar 3.6397514875900803 4.640939653694497 2.8881478885296428
Ar 1.455594550565644 3.054111006299223 4.7974591520914105
Ar 1.4183066193494793 4.082396943568736 4.826740459858595
Ar 4.602918879744604 4.044580865133304 3.0271816952835695
Ar 3.659557757700317 3.318137368634777 1.289113188361212
Ar 4.4663743409454 3.1743421426649676 2.406908701506321
Ar 4.061724965512608 2.263418023866208 1.2449694830514726
Ar 4.078974570893821 0.44441633032855665 3.0564770696813417
Ar 0.47571230889792376 2.9988983861859495 2.9921889537214854
Ar 4.230212289354838 1.0019441609057314 0.3379384922666163
108
step=18600 time=93.0000 Lattice="5.038789 0 0 0 5.038789 0 0 0 5.038789" Properties=species:S:1:pos:R:3 pbc="T T T"
Ar 4.698402288174592 0.8113322213336643 3.3719283120242056
Ar 1.081141453745505 1.4259251034262983 3.7289077988589874
Ar 3.6749160252801043 2.857599382147641 0.08633002612078691
Ar 0.4067602731666641 3.423270229722255 2.2215741095830053
Ar 3.4779424592223345 4.937542843215646 0.5273882328598631
Ar 2.1202842829013786 2.915696833022517 3.2524800416242337
Ar 0.5096551379993802 1.3377708271451174 1.713110763699102
Ar 0.4146568734526605 0.8396996952772913 0.6207692601568233
Ar 0.7669076246004212 0.3438335686054235 1.9347949148305121
Ar 2.5845490876841395 4.7762156549934485 2.5762147988835356
Ar 2.6335182615973936 0.7883594092959196 0.5576810408564595
Ar 2.303408248376142 4.703151876612265 0.4759754026592437
Ar 0.700983280898067 2.2804773660780695 4.487164390396737
Ar 1.0159233391497602 1.8497685494401612 0.5425854699906186
Ar 1.6207794962468005 4.953313553363639 2.307148043671247
Ar 1.3987791802811933 0.900752280124213 0.1575185880161209
Ar 3.3131771504289005 3.412648869082952 4.252932406931933
Ar 4.0597920489695385 3.680326470451752 2.516964528351677
Ar 3.073101058743914 2.420480937718214 0.9147173116275323
Ar 0.5700741696861357 1.1914585955138082 2.8779537451364794
Ar 3.847371401781369 4.752865636450492 2.0079438019760674
Ar 4.341168215869393 3.6297994441967503 4.79737276736983
Ar 0.2768311546930622 0.9832076142462032 4.5162022946339375
Ar 0.8585659915178417 2.3023178326265716 2.6864414581530305
Ar 4.1610323469727435 3.1639316771999746 3.65185473385359
Ar 2.4300667575763084 4.088152553080737 3.2937827292208604
Ar 0.3478777757851052 3.3310967302046666 4.28971367392684
Ar 0.6333568314883345 0.43717663439327104 3.655848527655873
Ar 1.3599217662348888 4.935414075737061 0.7738183340279599
Ar 0.4687585154791868 4.2880812299486335 0.2562670958552296
Ar 4.90884056500199 1.7819986948800004 2.4201701113371126
Ar 0.14883210256770235 2.6652277665519235 1.5317463555235438
Ar 1.6486667395228265 1.4325195721908093 2.166783632733374
Ar 4.153500768572708 1.2651634269423724 4.162832540712038
Ar 1.900550684303343 2.721303908352463 0.7140801064522249
Ar 3.841317483027244 4.5070920460072665 4.729855076505341
Ar 2.6240959166931193 3.352823862648902 1.245719859018804
Ar 4.8222683370671895 0.013306939465340999 0.14944431036680028
Ar 3.2994715538010446 3.852152199594841 0.46120655498453195
Ar 0.7461466272674138 0.16537257442121378 4.859871424655808
Ar 1.5563850412582139 0.5247357946941381 4.17617221853644
Ar 0.9578012498709069 4.311843424435065 1.614305252143191
Ar 2.900312599989508 3.808773698512536 2.238582320982583
Ar 2.5751815744257747 4.12373080089329 4.665474097188579
Ar 1.387352021488762 2.5924728598948663 3.8734700333546535
Ar 2.6220278167131594 1.0271203625365652 2.5934282539394324
Ar 1.5843746961243645 3.946698481995664 2.613607826965084
Ar 2.0787772533959017 4.408833224293273 1.5055452775546398
Ar 1.8205254469213694 3.8486512077381447 0.5973687546954813
Ar 1.3472037735543714 0.8759557128082739 1.2251753769770546
Ar 3.5248379055987615 1.2846153500661217 0.9918361444559521
Ar 3.932634697800918 1.886742392946046 0.21335563092790144
Ar 2.237919492652853 0.5571089332681511 1.5883015865442958
Ar 2.8634538806360954 0.15863023795311734 4.504101503132062
Ar 0.6064189718408034 4.702775818084574 2.8787506108758087
Ar 3.7465258292585664 0.2597319619807118 3.884075474489199
Ar 1.6942533747333126 4.727599141899269 3.370279759222538
Ar 0.8416936813820414 4.402736780772638 3.923862875566446
Ar 2.0279802457899896 1.6170459853010308 0.8440450790571747
Ar 1.7298712659749411 0.7517565371773814 3.044749109335182
Ar 2.878474026506907 2.1704418938582566 2.823323677438595
Ar 4.609048566019525 2.698959577163895 0.6819601782115614
Ar 4.15863215196454 0.2887491766158058 1.1331899967788948
Ar 4.546414599193518 4.857985668285627 3.1011938589247467
Ar 1.2075786897988248 2.2756633299000324 1.53204655989721
Ar 2.5091753633941685 2.187116545765152 3.9477934789298086
Ar 1.4920872646251135 3.2908422260106303 1.4916336541932953
Ar 3.309906051474344 1.2015967900431208 3.583835100620624
Ar 4.655840324468071 0.43584071311255024 2.1108033098257386
Ar 0.7504753892630038 2.8894945785273642 0.7462298165814956
Ar 2.614058499672984 3.0764214381116464 0.04505614977078565
Ar 1.5870609918764194 3.786867600975766 3.9466470098128443
Ar 1.8055004496627283 1.9150477229551406 3.1461430406460487
Ar 0.08938803543805057 1.723709096151401 3.767712695161041
Ar 4.215246755545918 4.208520908012403 1.088174020361544
Ar 4.752443878799501 2.5869569378695525 4.517457896262729
Ar 4.470345490361896 4.108687770174353 3.9486619690126026
Ar 4.0051889787684 2.0511327954539946 3.191308997794286
Ar 2.3455331316114845 1.1513134063147317 4.221998333902801
Ar 4.991268275258871 4.925244145631035 4.119391806742241
Ar 2.629258342295543 0.28403913381155 3.4621104448130797
Ar 3.2411119200777327 1.2777972773737882 4.734807238321247
Ar 1.9548859846614588 2.6427536395703286 2.1974388828932354
Ar 3.330913603260586 0.5419770370339706 1.8174306974629715
Ar 4.692597560121296 1.4339063529048743 0.939254729492671
Ar 3.140263799071488 2.8609325184830663 2.027760807529338
Ar 1.6474408695336706 1.834446491141593 4.642286948572682
Ar 3.640932926552205 2.207141704083063 4.226430718166437
Ar 0.06493824005173333 4.866373336802561 1.1752096125778468
Ar 3.6194186887940427 1.5170728478703037 2.3477824388857553
Ar 3.1082298773267736 4.434714113405594 1.3219696000843673
Ar 0.931772756711626 3.2674393380489506 3.258742636720111
Ar 3.1702776487106323 3.1159875851700427 3.0929973377101834
Ar 4.9115040212213055 4.329571247312844 1.9764087420940957
Ar 2.506157924144849 1.9914380997876826 5.035907746447247
Ar 2.7625192120159827 1.6555801286135199 1.633140183491188
Ar 0.18310658991776826 3.743460621251532 1.0203705062164619
Ar 0.02828698587631842 1.8375599338087207 0.06174410154466573
Ar 3.5196127581276615 4.477148533113531 3.175553384489986
Ar 1.2394227530425785 3.3558804125750816 4.916884087217838
Ar 1.5324075790776497 4.536573771107463 4.90171983558389
Ar 0.0028361732333643955 3.768068371932112 3.1362262428780805
Ar 3.7764974790474413 3.193375767934235 1.2292857615679085
Ar 4.363646040988328 2.690412941483538 2.203328643198547
Ar 3.9453098910071955 2.0844632179143754 1.4131929799811167
Ar 3.7629003276205433 0.5560964701024503 2.8202008508791407
Ar 4.884356607150422 2.598620892687084 3.1053771957353864
Ar 4.192596861235783 0.8637600788964145 0.19608876320925864
108
step=18800 time=94.0000 Lattice="5.038789 0 0 0 5.038789 0 0 0 5.038789" Properties=species:S:1:pos:R:3 pbc="T T T"
Ar 4.415977018911803 1.0607684915017739 3.3396798065334883
Ar 1.2367776426592287 1.202370229958167 4.11047932059525
Ar 3.5322934230843845 2.888530348877037 0.22081566194929575
Ar 0.5415874876145026 3.4300219592578007 2.110152479146363
Ar 3.852549318595307 0.34082488328859367 0.5386918750846679
Ar 2.3717587348644105 3.3920865981803945 3.026318418504659
Ar 0.5443061384028645 1.3638464643280295 1.5793258336290366
Ar 0.49725299916402327 0.8149029869203528 0.6900483193125218
Ar 0.6416165338099566 0.22567447257947343 1.5470833921334948
Ar 2.614652733537869 4.915217534964373 2.466256974270244
Ar 2.457684609858258 0.3853002503049772 0.5405116149124187
Ar 2.1905145767436904 4.1064496173923795 0.15869365304465602
Ar 0.5751002921028219 2.17074930241809 4.418874844111607
Ar 1.0705005827985643 1.8280168061700854 0.3817818318848373
Ar 1.5213152979718239 0.31376512806453716 2.209180617479224
Ar 1.4663283670934442 0.4391962647081094 5.037402037197324
Ar 3.8566733629172507 3.5413998528621575 4.575544871873526
Ar 4.720601976910864 3.8951365520397108 2.640560862504622
Ar 2.5656092724610433 2.327969052573217 0.9681363966557903
Ar 0.4206290940029587 1.0628263908250228 2.6821522458100047
Ar 3.923193382123974 4.587153619747637 2.2625616821436623
Ar 4.312487881406352 3.5384807340217397 0.5332758774213981
Ar 0.1768218730816766 1.2138874999168567 4.326744670332672
Ar 0.6873925226476312 2.3383467193086878 2.1073386342174656
Ar 4.332540513309735 3.298456981207043 3.7074164727009653
Ar 2.5868737631895016 4.3744935469391395 3.4040110134356634
Ar 0.5952007264314059 3.1623214291117043 3.881006120367467
Ar 0.5457673343787431 0.4437396724392577 3.611610481902931
Ar 1.60243871797521 4.96742070386907 1.0127486029092367
Ar 0.29494617914844273 3.6827228704369324 0.02830894602623073
Ar 4.7126133739757545 2.0106189151680685 2.4015546371040655
Ar 4.830831706853236 2.770102416864682 1.7040955381742433
Ar 1.34138870386243 1.5440493059803764 2.3454572684667947
Ar 4.3120991492411465 1.7178463416748466 4.3796430614621364
Ar 1.6783517440606366 2.9956090156963415 0.5307557320141107
Ar 3.564981804725681 4.614893914705249 4.682021620750841
Ar 2.6280280782627816 3.4480059264677116 1.083474584174984
Ar 4.598944597987443 4.665321701847176 0.27255948239132666
Ar 3.3345906933052984 4.114823540597394 0.5231853149207665
Ar 0.3328811990636835 0.10840933528914971 4.745515092565949
Ar 1.580375461336828 0.1594568365430989 4.042486943908284
Ar 0.9792659494547342 4.41514696749908 1.9090912544120873
Ar 3.1490789159560677 3.9451737058717153 2.534022224771797
Ar 2.8382556430615864 3.636011757768755 4.274454403845863
Ar 1.802259864359552 2.7266298677934033 3.7748618683878052
Ar 2.5638786960872855 0.9558675559465472 2.64166409936432
Ar 1.5157380250395063 3.7208944948513984 2.51451445760791
Ar 2.0482985169848 4.403471996717588 1.7385443084202543
Ar 1.4326453084404696 3.9066958740930873 0.9093256295906597
Ar 1.4736204847055825 0.9149192338327589 1.3227171955371684
Ar 3.033039039273937 1.281584437359445 1.050783061874249
Ar 3.895799927135286 1.7291211932873007 0.4678444072967248
Ar 2.4449200702936578 0.6162130826166813 1.6746844526611606
Ar 2.5337510278670803 0.05649847150045093 4.561670697355494
Ar 0.437380182520463 5.010514669970286 2.605941356064176
Ar 3.2546636480779467 0.04235679166517553 3.720090680682352
Ar 1.3493933892172536 4.695691386836375 3.0299004013683377
Ar 0.5984649534687457 4.3732971505024185 3.9720665976597727
Ar 2.119268924912124 1.5070525169432742 0.5241236470617125
Ar 1.5007291699824215 0.7765967955813186 3.1018406597237993
Ar 2.9102126902767402 1.9253585575997803 2.8465123702215593
Ar 4.533185225257475 2.5672253856022067 0.721233516541349
Ar 4.703527907388178 0.3118626163846805 1.146246431525112
Ar 4.592283206225176 4.809585661401853 3.098904792466621
Ar 1.4903346682904353 2.0598720082319253 1.3336727116773965
Ar 2.6845575112402043 2.184284057458916 3.759996873265375
Ar 1.465711511723802 3.0669832829016825 1.5416378257804788
Ar 3.5072558690079116 1.2132338346927887 3.756290038718709
Ar 4.634972056942547 0.7212102578587085 2.2145898569401634
Ar 0.7036943655488995 2.7629673854232224 0.6542189904631124
Ar 2.4978572996831816 2.73751663492061 4.8271441199456575
Ar 1.569368014305452 3.8931612700120968 3.738155410994619
Ar 1.7774093775609845 1.676215131814891 3.4173374355203787
Ar 0.6348347646280597 1.8971150434462978 3.3849667759068605
Ar 4.142012924423981 4.509824872468226 1.249906345663395
Ar 4.7429411593399795 2.66208725972097 4.728943431258976
Ar 4.6273736382768424 4.2162879833571685 4.16272295171732
Ar 4.138462428167763 2.2898302338227428 3.354527437928824
Ar 2.1540588553976456 1.1522463772924183 4.650024798538188
Ar 4.491231328846078 0.26645027931054865 4.040485162735908
Ar 2.4280608386532796 0.7506537896184243 3.663983678318482
Ar 3.4976618922070357 0.5902531281350254 4.6093799485500355
Ar 1.9767309846420444 2.4419094902874208 2.468768659032751
Ar 3.59109756898407 0.5152793459461091 1.6964473086655318
Ar 4.42155465253565 1.4554502756321304 1.3694487424024144
Ar 2.7870948045974826 2.8172102149621074 1.9790972894038614
Ar 1.795114050245069 2.099629114518007 4.522483792280354
Ar 3.5666813288310775 2.4944420271013668 4.225225915991278
Ar 0.6757608178678309 4.6122346120830064 0.6934799898466483
Ar 3.691974450825011 1.408883576124543 2.241176765965264
Ar 2.9562410105838195 4.710016528590928 1.3359561375129014
Ar 1.0774766919079952 2.831503513010916 2.9422256341953092
Ar 3.3256265974265404 3.0738915154339925 3.407513729997908
Ar 4.9520072589106 4.46105166156455 1.8869148693287183
Ar 3.076315328454388 1.7818673022236935 4.9723583212425835
Ar 2.360582504784488 1.6806416585989519 1.7731160699138666
Ar 0.23866465336542134 3.7860827597239743 1.1153953759163233
Ar 5.030869494426849 1.7665446614708626 0.25764603409337344
Ar 3.741448268583539 4.124028621400199 3.509560700795769
Ar 1.5001601719782336 3.2897804293342565 4.603286850240942
Ar 1.2686912600327491 4.504250411677316 4.909323977564422
Ar 0.5997918594658427 3.932134779078618 3.035881721952726
Ar 3.673255856765027 3.649182747812139 1.5192741957317348
Ar 3.9784169342120053 2.974712753033459 2.5082239402125706
Ar 3.656009773812834 2.234897096175264 1.4713922267599369
Ar 3.607064900504422 0.39038475007655815 2.7708273362214113
Ar 5.028321675891908 2.8353855581238943 2.866989863229842
Ar 4.5924805383760425 0.7452218086754204 4.99487098722748
108
step=19000 time=95.0000 Lattice="5.038789 0 0 0 5.038789 0 0 0 5.038789" Properties=species:S:1:pos:R:3 pbc="T T T"
Ar 4.326050662774383 1.0991950589984838 3.184316134496823
Ar 0.9508258791192428 1.224322922218869 4.575158961909128
Ar 3.522553112892206 2.8585569729993043 0.18855870885615839
Ar 1.0463431550589462 3.2825535741865512 2.099673024799951
Ar 3.7002554877173646 0.16621188484538182 0.46824515818956974
Ar 2.6482985793841367 3.2795788128160255 3.18188432052179
Ar 0.4463946149554664 1.7333855460799115 1.3562441238406722
Ar 0.47765598840328916 0.9358957579031195 0.6557472731764031
Ar 0.5471136204745294 0.3937072278703817 1.68515283416774
Ar 2.6088381945405943 4.757298417791426 2.481204432770825
Ar 2.5811865694329947 0.17203435112736148 0.3421997691754519
Ar 2.0718229443504415 4.211657930607523 4.996725519126415
Ar 0.7659037209301599 2.3100844924258097 4.258322623186731
Ar 1.2262625737603343 1.8313383714837053 0.5347402172353442
Ar 1.3421553375505728 0.2048014559411337 2.4212999050226767
Ar 1.5202406489667242 0.5978147163257505 0.2456904671148885
Ar 4.313490704367887 3.578668596028388 4.67853046047966
Ar 4.669102144939871 3.903388871847978 2.70709764573596
Ar 2.915285624471756 2.2964893596738216 0.8928873556718501
Ar 0.3533423518766237 0.930660031301746 2.5924372688571475
Ar 3.7557739603006763 4.458028332115991 2.3112533717531187
Ar 4.401090267747431 3.498652857016 0.7608200791148108
Ar 4.80895129991792 1.6103578471731437 4.253039772316259
Ar 0.589287149166723 2.0540607218286646 2.422719598895528
Ar 4.7776706673227585 3.3403943344049294 3.6007391645405358
Ar 3.07367020055586 4.288106103193495 3.3497620641816104
Ar 0.7181962107514837 3.437540741023908 4.19121966127846
Ar 0.18737975362307796 0.539082924230937 3.570828601672631
Ar 1.604532314123066 4.61073181803001 0.8898922267878642
Ar 0.1859278192153933 3.7626952984287563 0.04977786202093771
Ar 4.581986547139079 1.4050309279168416 2.1883061783349054
Ar 4.090627914919041 3.497799169150847 1.8746971493624114
Ar 1.490498644906311 1.332591193432333 2.6431995437897005
Ar 3.7191240362999873 1.607890037578308 3.9838054491231762
Ar 1.8707082914293722 2.6708068825541047 0.7835619665360737
Ar 3.7457014480619217 4.6991771868226975 4.567458715240676
Ar 2.1676968700763797 3.7369010552357333 0.8739386409308181
Ar 4.695763357124079 4.709198542991117 0.08683990975227747
Ar 3.2022210699094535 4.157196198501526 0.3308570148595121
Ar 0.3634638646181252 0.2687824303842773 4.597159523932598
Ar 1.5804076344339189 0.20958954212886308 4.2918424650903955
Ar 0.8209277069932128 4.298803050199594 2.035268349148877
Ar 2.95977901514824 3.7303958945907585 2.2301737713779053
Ar 3.1758478752849992 3.6940549798053346 4.326921896508351
Ar 1.7633621405672928 2.798627426782142 3.900004067176795
Ar 2.3933515051329572 0.8577879220360196 2.4286102431485785
Ar 1.8193755196364452 3.7680312320367135 2.7683000116767422
Ar 1.9145549603869028 4.196347815528044 1.8214388923469569
Ar 1.1627116738116057 3.6954299159086252 0.6571457900592385
Ar 1.3137016731420255 1.0562234938377861 1.505156125072787
Ar 3.328225683990142 1.1200184454637436 0.7921297067528836
Ar 4.185847302688302 2.1065554243324076 0.0222182083337693
Ar 2.1660720298980554 0.27240558256059355 1.63035630294613
Ar 2.5654093230241277 4.86616898172759 4.1969251178380205
Ar 0.23009041582893724 4.766733277154924 2.7247882853389993
Ar 3.2828763398868075 0.3279378172607172 3.6904987136757255
Ar 1.7207380359826903 4.6908083767494 3.2634999796722055
Ar 0.7909356452034104 4.780353166418851 3.8251057200571585
Ar 2.1578781791021573 1.2684703403412954 0.6607764573184939
Ar 1.1929933242875004 0.6613187281256263 3.4326203526762553
Ar 2.690458467322178 2.2874564211820645 2.7118032266734207
Ar 5.007949403876537 2.6106458970009006 1.408876694643424
Ar 4.669621491671913 0.3897356593047793 1.1127180229882663
Ar 4.322109340141393 4.95000193426228 3.238165019217465
Ar 1.351324031415432 2.19267759116485 1.7294592367009503
Ar 2.7768785525627364 2.385576962418414 3.8386085902476283
Ar 2.139072316824221 3.013563785131764 1.8848694897667237
Ar 3.2320769914723995 1.4675847095547743 2.960148296254059
Ar 4.50278059793607 0.42536316062843166 2.1901338856347405
Ar 0.5090482041283918 2.751499017318088 0.4677291688750687
Ar 2.4892656151287293 2.9763898101002204 4.798687168600737
Ar 1.7835987114823602 3.862903505540707 4.008879975250697
Ar 1.7619090952207146 1.6762831185240916 3.8633606119808444
Ar 0.6396116033420904 1.6001167656586832 3.412807571723352
Ar 4.043047100079215 4.41009402083908 1.191781774637147
Ar 4.948075866197667 2.6539813824813248 4.6593685840296315
Ar 4.864395698974405 4.411159114158649 4.152385528931185
Ar 4.45666302228293 2.2302796304557653 3.353027903539444
Ar 2.259470700275509 1.1510751712816314 4.567179752913654
Ar 4.363760333685535 0.516900967450598 4.269834126046083
Ar 2.2361444570202913 0.640731308939535 3.6206870805492266
Ar 3.2912220553756786 0.6920569013663863 4.602414521876315
Ar 1.5228902215218634 2.460821396066622 2.702763181094878
Ar 3.6664041248585417 0.4144349879593684 1.5582281368693034
Ar 4.38150968233946 1.6131442226324417 1.1492971619685364
Ar 3.254655074693223 2.6156445330128437 1.8192719576621263
Ar 1.8232798199013458 2.059875092539465 4.803092662188575
Ar 3.8208983125337115 2.8592804254653332 4.1214297340754475
Ar 0.460485445646631 4.6582181984758995 0.9162300781167386
Ar 3.318271061552691 1.289703033212596 1.8573314454730148
Ar 2.924018375782902 4.534949860779724 1.2937006032954599
Ar 0.7024278559129511 2.694252176916573 3.262355437686105
Ar 3.8113321891621457 3.1400120083466656 3.011223555710151
Ar 4.826156969118915 4.398632609916319 1.7717780720807301
Ar 3.1782161893609677 1.7461009715067808 5.0197468294064995
Ar 2.3989392069017392 1.907818771142105 1.793019396133292
Ar 0.3730193348815229 3.6193306228311113 1.2925077933113276
Ar 0.1544611413767095 1.7957233882472172 0.18761366773840052
Ar 3.994092413199182 3.9869231556598486 3.7283055980265165
Ar 1.4907924837588722 3.183782128749038 4.895961296607861
Ar 0.9817372388695436 4.427974114615881 4.786933095074722
Ar 0.7759756826566622 3.9478805804092727 3.141569134723951
Ar 3.2288813240138596 3.505857653535915 1.1928565866254586
Ar 4.109461667130804 2.3434083239268424 2.2652203265398554
Ar 4.013755420119613 2.556756603872919 1.0515384926265174
Ar 3.5082189603942084 0.3723495194017468 2.6900228509495525
Ar 0.05163792301684096 2.9634581162957905 2.5067500000976235
Ar 4.396101641239504 1.0834433062092605 0.15313652382872964
108
step=19200 time=96.0000 Lattice="5.038789 0 0 0 5.038789 0 0 0 5.038789" Properties=species:S:1:pos:R:3 pbc="T T T"
Ar 4.440731786303422 1.1873342318379227 3.1400210044193395
Ar 0.9499804309568789 1.0578572286884893 4.450840687569932
Ar 3.357487267844113 2.9214444129865194 5.001004903298692
Ar 1.1209690876137075 3.0899366867332403 1.850046851319051
Ar 3.8463313364536016 0.3432188603418422 0.3764453069321627
Ar 2.532307244766676 3.167958172396103 3.4470213353466637
Ar 0.4307637186166301 1.4298057319449764 1.3407809866796718
Ar 0.5361145838131122 0.6812692200763351 0.713493021229769
Ar 0.5747355301771997 0.4052685537619882 1.7669050818688312
Ar 2.9076542386604105 0.08410768235435936 2.350036429834862
Ar 2.6798652242768326 0.35517363339352376 0.240871739271826
Ar 2.1966162277137427 4.436859308964768 0.8075526459539099
Ar 0.44085488430380326 2.6168693376889114 4.66254984583835
Ar 1.2167150111171587 1.4260791350968165 0.3591474775884738
Ar 1.4747048424560836 0.43618667524054383 2.4121911611471614
Ar 1.622506765119419 0.3040895362645135 0.34772513759769136
Ar 4.1735499836962235 3.952323401966998 4.864407550802059
Ar 0.010141808516276413 3.8355742144743474 3.1646887647747364
Ar 2.792396202015425 2.320230728067937 0.7734811613081651
Ar 0.3364683660525214 0.914653896403346 2.618868273789045
Ar 3.6780974249800833 4.346055529833123 2.297712124262389
Ar 4.764917286474624 3.1974065258533306 0.7055154449807526
Ar 0.004091249720002157 1.4124343449861636 4.291737847695188
Ar 0.4156854477329419 2.1980605508876865 2.362648727061344
Ar 4.705429074736391 3.259446371204105 3.9619318435972195
Ar 3.032033066608236 4.292435024301213 3.098528032759935
Ar 0.6150553486604522 3.6571954635950896 4.137794161562472
Ar 0.26408274679303634 0.4903337662358359 3.7740739530108405
Ar 1.4965142579695918 4.939672910280236 1.4077584839850599
Ar 0.3497240953286178 3.7843954666215045 0.11148902005880089
Ar 4.562653734268006 1.2760446921052035 2.1037380496607856
Ar 4.07486626593171 3.1517520122937834 1.7531658845573563
Ar 1.2837024539009574 1.4720095095345793 2.6562536596114
Ar 3.8295598249486087 1.8514599062987753 4.109772284558415
Ar 1.695119144848945 2.3351887416700645 0.7198284532123047
Ar 3.8337668896233774 4.728818590180251 4.357102621499845
Ar 2.1477933544239525 3.2843383976153646 0.6526126551976005
Ar 4.69862851357987 4.787445734281656 0.1607438107754818
Ar 3.1031419969741134 4.267447647255674 0.22288238391803256
Ar 0.5034833239679406 0.08794568050932224 4.72860248710776
Ar 1.7781439352277328 0.10326797750447074 4.428755750525201
Ar 0.7524018468083203 4.294250079326126 2.0122360039441465
Ar 2.944530104222643 3.407142075178241 2.4742491914329
Ar 3.1273911039713083 3.8350001987526467 4.285710062179599
Ar 1.5608367089447837 3.0368637599505828 3.8047843075524894
Ar 2.47180794452563 1.0757190139808657 2.275865948085148
Ar 1.9176834272998806 3.460984147297238 2.6052856026513296
Ar 2.168237522452598 4.307511145145102 1.8308914838351658
Ar 1.3029536647474858 3.810684782140952 0.935629778435981
Ar 1.6311899530445382 1.0354556366973757 1.3859534027868678
Ar 3.164932183360985 1.292517143201498 0.9375230760819875
Ar 3.805649935131171 1.3516790980453006 0.04188435494168312
Ar 2.514718224814003 0.5177812081209854 1.386414085089323
Ar 2.7448306048306903 4.890214652074116 4.302936242470193
Ar 0.4221023667249092 4.794947812788323 2.774694921981271
Ar 3.4981099943538547 0.18406631122976091 3.504826529676638
Ar 1.5948705265153995 4.455418651811857 2.70674920566718
Ar 0.9944817417558742 4.585778515341077 3.753565791645524
Ar 2.253257567153758 1.3565310651541898 0.412153870698533
Ar 1.3250316693316766 0.7508948029560943 3.503945613968658
Ar 2.370179497331979 2.222476768775583 2.6600276600713557
Ar 4.899179453378102 2.4066831659085905 1.4832418800271983
Ar 4.627394099911585 0.11393073191706614 1.255806381348319
Ar 4.593295528323227 4.905267782993296 3.28177724890529
Ar 1.3975282174647625 2.0042953153376697 1.739165341048266
Ar 2.49694116386894 2.0854946635248015 3.8543865039794465
Ar 2.0670315807009483 2.8485285322806972 1.6135505623679047
Ar 3.41650956485626 2.3523545239947734 3.1178753683437903
Ar 3.924908704283746 0.531499601668816 2.461636502188084
Ar 0.7748944353011309 2.8135405642078464 0.9112249944058738
Ar 2.433336197556368 2.988109756421767 4.467663511440782
Ar 2.1435213839316467 4.00111769214257 4.698006269594565
Ar 1.429234435646413 2.0290128531117806 3.6621429371856977
Ar 0.5384523635489432 1.702049909832868 3.380275071732048
Ar 4.045944529540319 4.373027782935335 0.8130727721428845
Ar 4.382686035617919 2.3772512921334266 4.69897501573643
Ar 4.836586032395974 4.432131210411243 4.173905649190256
Ar 4.6450772581103195 2.3655973311115357 3.337536943488172
Ar 2.0216417902632897 1.2443296901555558 4.462057678024818
Ar 4.231210202386445 0.6428500473485772 4.235888098932811
Ar 2.2544972569125377 0.9760856192250288 3.4335833715532686
Ar 3.228523482512655 0.9147760842975875 4.2351881802458475
Ar 1.3562891021125854 2.5597302106758257 2.74647883303179
Ar 3.7078400782277106 0.5782930886465519 1.4926378314034532
Ar 4.452796529524939 1.1240172294851334 1.093176124082697
Ar 3.1639221858509816 2.6008150205235085 1.8822762625137457
Ar 1.7037005419656035 2.2411199132673967 4.779686131096366
Ar 3.6025718309252537 2.9167256587071977 3.9403660891041246
Ar 0.2962877817478146 4.452749091624451 0.8710145767880355
Ar 3.390990052851458 1.5501169073776881 1.9595337221818274
Ar 3.1597012475692665 4.555489322737575 1.3149688962322152
Ar 0.4304138872640546 2.884033925814427 3.3478509370179097
Ar 4.075030723433225 3.283358939255188 2.8457008587353867
Ar 4.689284054351454 4.311978454583601 1.9631369928737528
Ar 2.922733149011648 1.8116633971307705 4.754639299791794
Ar 2.4336750803144107 1.8177954478989578 1.5719507199254437
Ar 0.26963857810916453 3.5542497237934505 1.5214071474661226
Ar 0.16666739271041695 1.9236746650098335 0.35403106079669744
Ar 3.950979266364651 3.9398565830901373 3.6249993242528347
Ar 1.3171155173920512 3.219400210334481 0.009192454561814448
Ar 1.3276178201144635 4.4028751991310315 0.05148136148643947
Ar 0.8796676366749534 3.6562812580577684 2.727293189855283
Ar 3.3303520196698253 3.329022676656227 0.982738146316662
Ar 4.176780695795641 2.1785123723365087 2.2987711177887364
Ar 3.873892429452208 2.2436674141140354 0.7135012730015159
Ar 3.262233925495183 1.2378751872042575 3.0703391581944195
Ar 4.93446417842061 3.0839665479045557 2.3674252668955846
Ar 4.750174443463653 0.9352794737981567 0.08939461903079315
108
step=19400 time=97.0000 Lattice="5.038789 0 0 0 5.038789 0 0 0 5.038789" Properties=species:S:1:pos:R:3 pbc="T T T"
Ar 4.308924872626316 1.0997876994297102 2.942681110810037
Ar 0.7366402447469976 1.6922304427273742 4.6155322796527125
Ar 3.5195385572840356 3.230618468738664 4.952653630160132
Ar 1.2102098705133018 3.0942017848670313 1.8651058169564136
Ar 4.0441970645254095 0.321670983554074 0.3904366763819102
Ar 2.284670352602702 2.530840942631029 3.3991148576001913
Ar 0.3440713675830572 1.3005617835700587 1.2521286694401927
Ar 0.7211650859424448 0.41294606304882336 0.70436077205577
Ar 0.8243161960386907 0.401782325761756 1.9121067759077843
Ar 2.791269366883075 4.92343708344261 2.6392384370311013
Ar 3.0438373041977895 0.708500996883615 0.7038350483224529
Ar 2.1185575971841994 4.525387188336227 0.2892775358765909
Ar 0.49413005745379385 2.698802834067061 4.781431453060981
Ar 1.1935421498988832 1.7144661626417204 0.6616333206809885
Ar 1.7151496427471327 0.006216018361625155 2.4283166890990335
Ar 1.9109101813739415 0.6141936632558337 0.4160987739224567
Ar 4.405249452759678 3.982233657691255 0.004883233187193995
Ar 4.7873542085449 4.082311677262158 3.1482305704240976
Ar 3.0140758102394845 2.5626070832302434 0.49737322114770144
Ar 0.3900018427807035 0.9014776443538413 2.6773642088534024
Ar 3.679995768514778 4.482931880276838 2.9198664055608425
Ar 4.625304362746991 3.134152363132982 0.5558441769900354
Ar 4.821846265308756 1.8790527279952547 4.297991276410656
Ar 0.2458961791079661 1.8549369325517155 2.3537635316928567
Ar 4.710778449411173 3.267987254822049 4.429922135455547
Ar 2.787298435222133 3.6139570492515865 3.4653058247932362
Ar 0.6661017986273587 3.668357116000615 4.2395909179900615
Ar 0.12154590260651424 0.794843389725462 3.7754421338046193
Ar 1.4453438988126095 5.032145451640582 1.152977209910397
Ar 0.4145022797459046 3.749922576587772 0.27684619567366625
Ar 4.490861666361503 1.3066532259398527 1.9059714870415234
Ar 4.122620288270779 3.019811740776481 1.633708237843095
Ar 1.3747818664312637 1.4239973679044524 2.4459304749743582
Ar 3.7333987907191917 1.5564214163021552 3.683611472300437
Ar 1.7209773422288133 2.6959974036543617 0.9574351208742783
Ar 3.7848891270579514 4.804331718590204 4.364211246718647
Ar 2.368958835915549 3.4396166236078978 0.4530194224720218
Ar 0.013709696417785244 4.819044730842636 0.2236721789023161
Ar 3.284966267158013 4.6663379770504605 0.48441389336671453
Ar 0.6014402533551128 0.2634666406878907 4.492214646492538
Ar 1.6612609134007459 5.007125709263223 4.048529684428568
Ar 1.4155791056011235 4.166119209498181 1.9994891055737427
Ar 3.350032008888414 3.755329371230104 2.01298255135863
Ar 2.8499482658215003 4.080607937841186 4.614989846000759
Ar 1.42582043110982 3.298734093037005 3.5630353827469134
Ar 2.2782855824058856 0.9181461790932625 2.4170930660630097
Ar 1.882290007738949 3.3206211006139617 2.6070996301783276
Ar 2.319035594457185 4.314367564037595 1.3732616562293731
Ar 1.3982649344485127 3.738013320472388 0.9039748191752223
Ar 1.5318642657205137 1.0108983988978686 1.4923181033791304
Ar 3.390744962614728 1.5032594433373863 1.308045705465613
Ar 3.614941948048636 1.4047869642773216 0.12279099611605754
Ar 2.415887875316362 0.28237431235205496 1.5752445050216728
Ar 2.6029867107288562 0.17278847644734105 4.7061646481122
Ar 0.3294526487313018 4.833131834193659 2.6776001499634634
Ar 2.93591141556712 4.762526588356094 3.7366601256618783
Ar 1.944345533896078 4.26953905110583 3.233754394194695
Ar 0.8079484348506055 4.457226408992469 3.5881976400291364
Ar 2.47746357431822 1.4759871748247053 0.38016450578346406
Ar 1.352265534242564 0.6688731940456766 3.216625169899754
Ar 2.2332507537591155 2.3990910077489116 2.2209128729732104
Ar 4.810654580262602 2.14547112893959 1.4476918917698187
Ar 4.999128451339428 0.15862845536247358 1.341057699064332
Ar 4.452244951767349 0.12732312260542947 3.3660274806865824
Ar 1.0041759665607395 2.027347305415776 1.6717673210713448
Ar 2.615621109847817 1.582788824624694 3.2577578896515273
Ar 2.428781717412408 3.199018383451324 1.5688285692036936
Ar 3.0912642790095086 2.635121320522121 2.7362536904370387
Ar 4.5826411308929025 0.3115589294165696 2.3371837764173002
Ar 0.6473970069033275 2.747631858235499 0.9593987341928296
Ar 2.4984937271296976 2.853503712294097 4.607416302059858
Ar 1.8560017923215242 4.007851215773846 4.334011671587502
Ar 1.2589576744453328 2.236329711369671 3.85221952757321
Ar 0.3342517772987791 1.8127999763601024 3.412976575366919
Ar 4.499432627833363 4.356575708624199 1.0268832461029291
Ar 4.057590175308269 2.373574539794905 4.8083918858153964
Ar 4.8727797664097805 4.417951507867243 4.09546886097338
Ar 4.340317531483461 2.4879607265306705 3.475311098102807
Ar 1.695073487968363 1.0450464843005285 4.270660128312215
Ar 4.218343703434583 0.6870830998426867 4.36842341743999
Ar 2.358620620891621 0.4092181780742975 3.370434859636955
Ar 3.150719556902096 0.9093229521058732 4.1341872413662015
Ar 1.1331525737070374 2.4560231326860262 2.6676630112677198
Ar 3.8384639818939053 0.5401461588285306 1.4456024640627574
Ar 4.46850072001898 1.2874082456458753 0.7353610023444029
Ar 3.207910852370665 2.4887607813017043 1.6282638268118899
Ar 1.7980008932670628 1.9310405494064264 4.736381192388946
Ar 3.3573602135038225 2.591310466966282 3.9016544976766485
Ar 0.6385961880938129 4.419319031858216 1.0999741426327756
Ar 3.379462891219121 1.5440394704565616 2.413011301658779
Ar 3.243759276793818 4.740878963874753 1.6584388928667768
Ar 0.28739405281983404 2.9146132510247735 3.6640922942961156
Ar 4.00791425613069 3.26146618511014 2.714134151180352
Ar 4.5828335104568465 4.186865828125944 2.1318711072391223
Ar 2.9550334848272874 1.8639752220752461 4.538501339611564
Ar 2.348713498733542 1.6903213226609155 1.320550374585101
Ar 0.08011657246792833 3.5642820173705734 1.4140843304228512
Ar 4.953877769607893 2.03256665384816 0.33985292791633465
Ar 3.7575278291498893 3.8722414000285674 3.9095262415024954
Ar 1.4870186175522146 3.1402863192236783 4.88983288963266
Ar 1.0984085700050652 4.464263414143357 4.900587352115487
Ar 0.6964474202541885 3.6968296297085885 2.514754219824402
Ar 3.4490315879164553 3.6077804263812427 0.9969671124262984
Ar 4.150691400016051 2.169676863933901 2.4235253142671977
Ar 3.931336775817365 2.3126510879623283 0.8805500494736116
Ar 3.3797045994823236 0.7412433203334671 3.132374080749266
Ar 4.9869927295886844 3.0083911227442837 2.372568977754487
Ar 0.013231901235836768 0.9183075658925482 5.029632414233127
108
step=19600 time=98.0000 Lattice="5.038789 0 0 0 5.038789 0 0 0 5.038789" Properties=species:S:1:pos:R:3 pbc="T T T"
Ar 4.21590982424708 0.975450150482033 2.922013281699344
Ar 0.8511431553768244 1.3346650931060733 4.095547285655315
Ar 3.448660440100877 3.50944608239317 5.007048814116844
Ar 1.3447272335780533 3.371171422662071 2.0872998703355092
Ar 4.114129511640796 0.36557776420913624 5.019372285318819
Ar 2.346922846253023 2.4457447832888137 3.7504785652702015
Ar 0.20039028813665 1.2734340839569898 1.3494178860733201
Ar 0.8179006281450202 0.5392211102828456 0.5704700248365899
Ar 0.47963748248530835 0.33729009650259445 1.7299885704908158
Ar 2.627885914663373 4.8316959317044015 2.489353100881852
Ar 3.112530989371818 1.1282825826361078 0.40426089502442164
Ar 2.327734866958111 4.428968477078658 0.2672645710067955
Ar 0.6977090643105553 2.172363379203149 4.773840143260592
Ar 1.1151857290594813 1.8146949657353422 0.7132435432373698
Ar 1.5884364548935672 0.3591237522852977 2.585875095819673
Ar 2.250298282120832 0.50125376908492 0.5799760469357547
Ar 4.304064368931941 4.092362614930221 0.06515075911267561
Ar 4.672141262676753 3.8926797610377166 3.441439031931621
Ar 2.98693586702717 2.3973528964965016 4.99946274686648
Ar 0.32648810941240936 0.7168423768227167 2.6920280862456463
Ar 3.4306903932717585 4.406794277352564 3.0190006091019566
Ar 4.708956986244968 2.9741080220726217 0.6185062070949919
Ar 4.838999653258211 1.8014140134620567 4.299685221251558
Ar 0.24589571433747454 1.7937056615513984 2.2386501394296765
Ar 4.864552324685843 3.51102182224034 4.377668193504698
Ar 2.7995895710846184 3.6972788369083336 3.4871406947278127
Ar 1.1090670569485357 3.2040098495431066 4.143884932749309
Ar 5.027310875413238 0.7170214278259787 3.6931815697461965
Ar 1.4594725100328267 5.0117519157149415 1.2936396098154885
Ar 0.3849561106183689 3.7710487326168014 0.1959727841748722
Ar 4.371076456050313 0.8287359641100214 1.892308111050465
Ar 4.3536567612339905 3.0920544666866543 1.7689808271747578
Ar 1.191760136259884 1.5804677031139722 2.9975031982310476
Ar 3.502672661966144 1.7509060291342928 3.8218325990241535
Ar 1.9094825865712282 2.6833795432992322 0.7358951337367778
Ar 3.7057648330339217 4.954401236519408 4.042372835958554
Ar 2.69072453332139 3.464698823896525 0.5832732206836481
Ar 0.07255179079292529 4.810891761890893 4.993776553060623
Ar 3.411270995918423 4.452612436129818 0.5265055604183628
Ar 0.840754226068061 0.38071313078402075 4.547209919597752
Ar 1.9080819445913257 0.24711764570290953 4.5478949535424995
Ar 1.0997163001041341 4.449209505235271 2.1376992631972587
Ar 3.0765656224563296 3.607413056963562 2.1601727603339067
Ar 2.9493626913819937 4.195731760993466 4.407276116958972
Ar 1.7716240221380328 3.3814385689920985 3.385321168375303
Ar 2.3116077057028215 0.9435129899243839 2.058089760448353
Ar 2.055058062560059 3.955265632978799 2.621450923218203
Ar 2.2615366722347696 4.206058221258788 1.5876026110977302
Ar 1.4839626416871283 3.6898369018503736 1.1264133473751567
Ar 1.2092775897593833 1.0736865980247718 1.5140483350876868
Ar 3.4349534620904683 1.3224900396068118 1.4973628295749744
Ar 3.950238616660945 1.467319369132258 4.880764876570967
Ar 2.849895341496581 0.144703120791102 1.360431998549163
Ar 2.9645803675141287 0.1822229570274371 4.833313329991689
Ar 0.33339636148905066 4.816959103699241 2.7926955929021635
Ar 2.678540241437867 4.892508757433284 3.620876155696069
Ar 1.6181342701991435 4.643667745773667 3.323455124225565
Ar 0.7912871568100861 4.327354803654341 4.01510461583121
Ar 2.3058166048031303 1.7564618044267701 0.8285243448139216
Ar 1.021242025561031 0.42189874003680006 3.5688390399866226
Ar 1.8602951503625273 2.556049035966718 2.694697102132452
Ar 0.14697440003710974 2.446960449352382 1.3986597940944283
Ar 4.832539609269096 0.2338078861559425 0.8728952502390485
Ar 4.225169658694575 4.974863995867874 2.987629770250415
Ar 1.1697442333283954 2.2343467910056907 1.8494240441903105
Ar 2.4187976727933704 1.7005149740435193 2.9161141486028805
Ar 2.274434641681732 3.124244528120446 1.6407870451560471
Ar 2.950354840045833 2.615291134021013 2.9646587518008745
Ar 4.630161898848734 4.870976459903786 1.8444432921739062
Ar 0.9028674611704428 2.8990879060719768 0.7980391088201094
Ar 2.407822601457539 3.354345501212008 4.528953098187429
Ar 1.7761156815167571 4.1373108682793465 4.189372984258329
Ar 1.3054581384025767 2.2921038157917852 3.8249152917541283
Ar 0.1635975892225824 1.7263501604184712 3.3436701340153117
Ar 4.588641951427756 4.102573010435725 1.0308594740101895
Ar 4.080960568088348 2.6010717507246297 4.714491844076523
Ar 4.806167089196288 4.796052725576271 3.9746227305991013
Ar 4.245087821642047 2.0120739898145823 3.0727791700833156
Ar 1.7633098260040159 1.3084387726027171 4.597877773332515
Ar 4.009571745052744 0.9078059404236563 4.023575446329253
Ar 2.100239920374029 0.7374114474064067 3.3563592775866566
Ar 3.2155477108526225 0.8871704706652684 3.268839921405409
Ar 0.7994247746131031 2.6678233862725547 2.8026852848463664
Ar 3.8473932632555123 0.26876098700462897 0.9835229318876617
Ar 4.254251206556704 1.1393240173264934 0.8429989286401794
Ar 3.2371145372461805 2.371894527594325 1.834518128335319
Ar 1.8631620284484132 2.3087155807152615 4.798936210774013
Ar 3.330850335279091 2.7604368840260185 4.059128657730045
Ar 0.519354268954593 4.4384497093650825 1.1126572011969527
Ar 3.4286459115142263 1.5590080425627901 2.5545100529128577
Ar 3.8599063023178766 4.150113584509979 1.7415319716454067
Ar 0.18156671136978517 2.7716225069508007 3.6871314440263374
Ar 3.9841468864090417 3.057942309671401 3.036012770942453
Ar 4.485977160404541 3.8776706824125204 2.484236714464461
Ar 2.79087587159442 1.3072008907561938 4.460377613663265
Ar 2.2194430870877104 1.952375711629319 1.8485513644267644
Ar 0.29621537620438604 3.6882496759135104 1.8360625027897544
Ar 4.957192012097909 1.9081999919815067 0.44244172783000707
Ar 3.8474611878937592 3.7746499799852726 4.128616608012803
Ar 1.397734168377959 3.5297109411237697 0.0497764822432018
Ar 1.2193925385564046 4.532801230763365 4.928398094848237
Ar 0.7367048211980243 3.681740588759747 3.0164739603824176
Ar 3.7358535885569397 3.4031716401889973 0.9174303979351395
Ar 4.269043094890782 2.0503071166239946 1.9159382728114445
Ar 3.827034822594926 2.137118881590321 0.8353006763727908
Ar 3.485400375722319 0.4649452349431838 2.388724536932904
Ar 4.859825599792824 2.851650951841547 2.6653576321449024
Ar 5.00262524052694 0.8611408374827091 4.858107433085302
108
step=19800 time=99.0000 Lattice="5.038789 0 0 0 5.038789 0 0 0 5.038789" Properties=species:S:1:pos:R:3 pbc="T T T"
Ar 4.2237390772494825 0.9952166613762987 2.7732765116527394
Ar 0.7322526693716104 1.5434935256400004 4.590141566943384
Ar 3.5499616703846404 3.3795489243545522 0.38323914951000887
Ar 1.309547467402044 3.293982597526543 2.29687544448052
Ar 4.133045605348708 0.30034463336186024 4.971034343528575
Ar 2.0998827817829224 1.902495097859461 3.6555727469019597
Ar 0.413155123642023 1.4021089627791978 1.1461554370392348
Ar 1.2361753062061258 0.7513921930338455 0.8166058853014423
Ar 0.7258302093012592 0.4376625580469633 1.6114284936277392
Ar 2.4570697556704455 4.984658222133831 2.504602737356445
Ar 3.042744859110448 1.1101104662053225 0.1054881216512505
Ar 2.306228314686982 4.46002264087174 0.6760008216492971
Ar 0.3710207372028906 2.7097971644391916 4.647403243758878
Ar 1.3021909787066652 1.8067615291827366 0.6037268978524502
Ar 1.359453633146224 0.22510057465172503 2.442536171057721
Ar 2.2218569512139785 0.5021818120093249 0.4190484574977041
Ar 4.04841494937724 4.287596815887314 0.03575561308966954
Ar 0.16022383361566755 3.8651439633772013 3.3842257653008376
Ar 2.732434654257871 1.8573444303317708 4.474075437136721
Ar 0.3071468077533273 1.038700936280726 2.4384631436666475
Ar 3.2993462999576537 4.2634926309332855 3.0465344938418717
Ar 4.465432200070987 2.978544708953884 0.7467639123314704
Ar 4.426907025008141 1.8418905307958766 3.6354963506794093
Ar 4.9067560860505015 1.9918653523169862 2.3791369167428025
Ar 4.602044443237121 3.8219869238243125 4.273091063148468
Ar 2.768696209282035 3.405788702560415 3.535666211040804
Ar 0.7660914790136117 3.7113432332990186 4.52514718303849
Ar 4.970973487776026 0.7118349756716198 3.530905122403529
Ar 1.8008558598784987 0.08727438701993548 1.496220830410798
Ar 5.02253755339058 3.741332862360973 0.18241336678832357
Ar 4.515742612959567 1.153066818973173 1.5433062186479078
Ar 4.3712295873692515 3.163551333544581 2.000250055635778
Ar 1.4801092081555312 1.1304279597824203 2.850507635754874
Ar 3.5168725899083055 1.5019840710532495 3.3498966328845086
Ar 1.6359279071188475 2.746187011445718 1.0410937141566303
Ar 3.4616275081974153 4.772666858228295 4.089069946130526
Ar 2.5519108939105357 3.4804495206130985 0.8123633460784516
Ar 0.027248779133567054 4.866485530673847 4.896743833039165
Ar 3.307673575556781 4.23222764687017 1.010987148167638
Ar 1.0358161823589218 0.5826445238556043 4.904019190865685
Ar 2.18842166776917 0.10094428537002467 4.430004365179954
Ar 1.000332041291597 4.317853186843133 2.2964391146167586
Ar 3.257005021484703 3.342592061751918 2.6319679203624773
Ar 2.6843876148492876 4.042562428428422 4.836889750850548
Ar 1.8655894556569241 3.0791116000211973 4.09087830204788
Ar 2.4148083475395437 0.9286650126000017 1.7665189546783675
Ar 2.1486307274869603 3.8968479715110123 2.7806917023798294
Ar 2.787571769527579 4.021662432217407 1.8694585550443859
Ar 1.6655282190950644 4.069512436523793 1.4818098932416552
Ar 1.4110252309532325 1.1162321637696884 1.8840282876219345
Ar 3.4051716256124913 1.042589416836715 1.1866691205665927
Ar 3.895234114027435 1.6914731029763828 4.541323859409945
Ar 2.928657630548258 0.0761546910519571 1.348892730011157
Ar 3.1668210566818424 0.09698910338670685 0.04202260015108571
Ar 0.3828103724282496 0.05619735486402425 2.8828491753198224
Ar 2.520670664594324 4.449293346484702 3.698214905880369
Ar 1.3226492999944377 4.463123264136577 3.2419094535641153
Ar 0.6650615895555326 4.653415310000103 3.993755005171366
Ar 2.3248225918404333 1.9035719091763212 0.4310805473828407
Ar 1.083815577646855 0.8251596065958856 3.780108710822213
Ar 1.9587647874177923 2.8074419920068086 2.9453908543798044
Ar 0.031094669036785916 2.561959273774029 1.4229136782694483
Ar 0.2162927318595345 0.5864290578216215 0.47481641795045576
Ar 4.25340633674063 4.991985714895707 2.9719603212697057
Ar 0.8962258069381548 2.017917402942096 1.7784974492102839
Ar 2.638873527860971 1.1642879671857598 2.8075405813852314
Ar 2.383845434098698 2.963411473761586 1.795414316141172
Ar 2.9432258090423637 2.2884096105014557 2.699927474763446
Ar 4.650240088165652 0.11071278284769541 2.000979011895034
Ar 0.644907108943288 2.9962922324997376 0.5401288261818271
Ar 2.721810834149948 2.7984175837792584 4.884736539558769
Ar 1.7455456985998676 4.13353623066248 4.38346606398675
Ar 1.161243121758079 2.3518935263380847 3.9761157495595594
Ar 0.4851434097055938 1.707700797824317 3.5337404561178207
Ar 4.33536913497427 4.005411756738691 1.0872371104780705
Ar 4.188261129332752 2.8023351949671835 4.682676576338626
Ar 4.626313005773404 4.828084400332983 3.965092854851627
Ar 3.928581734810764 2.4200425376727814 2.705213012470484
Ar 1.815523872930474 1.3526266158274665 4.499081038241464
Ar 4.0081141970650815 0.7641574445830526 4.0004147777612165
Ar 2.100098141485798 0.3174976942107547 3.379795558739701
Ar 3.3270017528086044 0.30177615074795255 3.253016733248524
Ar 1.0467294288732347 2.4196143812563187 2.7719929937760504
Ar 4.253588753296781 0.1827641143404914 0.9305303590619853
Ar 4.292280273431461 1.309979974723326 0.4999793265673925
Ar 2.897753982281091 2.138905323891193 1.3535079576154976
Ar 1.5697650959958624 2.5291688048340357 4.950811660150094
Ar 3.5784396019655484 2.5673264835783702 3.8236443045033925
Ar 0.1921992961158472 4.690797158331051 1.182948007880162
Ar 3.51808063830856 1.6841511919581782 2.0585127023855994
Ar 3.7779587179972904 4.5729332432642975 2.037488433116064
Ar 0.2718324136257465 2.6562498002360373 3.4993357560345695
Ar 4.287252029862189 3.31610534906913 3.142943862084933
Ar 4.9095785774376575 4.127416876362728 2.185344386039266
Ar 2.8946363970409807 0.8930440612411201 4.059778870734901
Ar 2.0320898566971386 2.06622025116511 2.0072283363210737
Ar 0.5466710927730237 3.6309337237360184 1.503273475634286
Ar 0.040477812339299944 2.1168143067153102 0.47801372054801167
Ar 3.6270516157013746 3.650769483026888 4.189990890577811
Ar 1.5564868999220798 3.5935850773449243 0.3680003087700175
Ar 1.1603633112348937 4.714847929481867 0.40140066863479346
Ar 1.1312924353671632 3.5121429376021105 3.5060560997201264
Ar 3.522514577721743 3.0240590851509372 1.4609859301271302
Ar 4.038117229014191 2.087827512330425 1.2498750484408647
Ar 3.4203969979905318 2.2186849969623776 0.308266292370676
Ar 3.428871701708776 0.6370211573282526 2.1960996174440526
Ar 0.3242623835558858 3.2190671938946833 2.5256368713866437
Ar 4.892031483713384 0.9715880192520607 4.573999606148763
108
step=20000 time=100.0000 Lattice="5.038789 0 0 0 5.038789 0 0 0 5.038789" Properties=species:S:1:pos:R:3 pbc="T T T"
Ar 4.053569885873571 1.3443184469954503 2.6583682785142555
Ar 0.7738124826904165 1.280606963484963 0.11421941531101149
Ar 3.7365469134430014 3.106495842816404 0.2400971960073431
Ar 1.3247353832862307 3.2874230798512394 2.1128649712964256
Ar 4.1329852466449815 0.2790995364356313 0.2024001884817998
Ar 2.4388781306023377 2.005703762219028 3.571983594532516
Ar 1.011563011731766 1.3824861788330631 1.4082894712328349
Ar 1.2826736688795268 0.4366301094758658 0.6336130386599176
Ar 0.8413061764639546 0.04562291208303429 1.6155095436614386
Ar 2.3963198728024224 0.05326109614666802 2.497524842950009
Ar 3.535701004458535 1.1486066435034628 5.024295947346067
Ar 1.9842776303569316 4.654493513372044 0.4558835065951475
Ar 0.013063235390246222 1.9928517437630495 4.790201391846366
Ar 1.711636988773692 1.5871052932775191 0.6161525756126363
Ar 1.404997346305323 0.43037962533642665 2.5474362341367938
Ar 2.58255784782182 1.136226727692419 0.4645457641610906
Ar 4.025215763633362 4.200626362435493 0.0384718978278924
Ar 4.574303046509177 4.252254461125845 2.8078894005835093
Ar 2.7940009291248713 1.7081735875243897 4.5637010792802615
Ar 0.4410820913671566 0.862833580538993 2.4099879974017995
Ar 3.4906666277058642 4.310988202269057 3.2001741840362463
Ar 4.5319762789654 2.486425240880291 0.4614988913509322
Ar 4.40223533853717 1.6643746468149831 3.6859371881794765
Ar 0.3267292388685701 1.8323762920391218 2.7883997400293126
Ar 4.841823516416905 3.8058398375133526 3.871566708651617
Ar 2.5736989239908636 3.7423640574859305 3.7415035251763986
Ar 0.642683064509872 3.024837534932129 4.363688937248363
Ar 0.07055471830141527 0.622590160038843 3.5953333583584373
Ar 1.8965857686155785 4.889937532108553 1.5434774882345197
Ar 4.907090699271841 3.4886657880601546 0.14690084720702914
Ar 4.692223661763046 1.494723560655749 1.6749807071185254
Ar 3.9901217651274457 3.5066153119858265 2.218329410049457
Ar 1.396512621243108 1.5934275391042785 3.1055601784288647
Ar 3.362104137172969 1.5087221358144285 3.5702695071991184
Ar 1.5523064803513358 2.349841754876065 1.2812860628321792
Ar 3.5333320923161775 4.663034713782228 4.168678151988519
Ar 2.4181247520961713 3.299096792643783 0.3914918624538544
Ar 4.95195875742925 4.6516785054438055 4.855697131426922
Ar 3.159057639764413 4.144784235922852 0.579892475274556
Ar 1.0200759838396425 0.2950193996870715 4.652040375858077
Ar 2.0167670036645595 0.42453678736598827 4.668180045015703
Ar 1.157067087932519 4.370494322133419 2.294337516533392
Ar 3.13074293145559 3.363263848543356 2.747664199037162
Ar 2.5976586815440132 4.336924173825824 4.68727502961352
Ar 1.8473248921869978 3.320564854743099 4.407953900719601
Ar 2.560361204449121 0.8585353661236865 1.53287557716643
Ar 2.350146224777447 4.083502647173648 2.689685912140587
Ar 3.113150507606888 3.8371168119907826 1.607918525433873
Ar 2.0117793968601974 3.9252875342701046 1.6348181950349479
Ar 1.8461093744304848 1.4788964600624326 2.0263284464112563
Ar 3.497337178917242 0.9096887695954996 1.0324223429092374
Ar 3.9605046989840393 2.0743760861913305 4.635392825005833
Ar 2.9337578961030215 4.887467199766814 1.3038833811409412
Ar 3.0627618303959943 0.24572922523432536 0.1983631163790775
Ar 0.42709586434822566 4.892492853896524 2.8391922915340766
Ar 2.55539339622477 4.813343627757214 3.629037976020434
Ar 1.5326574393155552 4.686753761928749 3.2242126742330712
Ar 0.5197159313328631 4.7271870803311185 3.9423416914076146
Ar 2.0052951985319423 2.3706375260968944 5.032229402388905
Ar 1.1202266511047407 0.617791701967961 3.5322777372170524
Ar 2.1105775564984097 2.9590948568526914 3.2844328408366477
Ar 4.567903248869688 2.699886636569999 1.582977686068059
Ar 0.1363977078817408 0.2743692754711457 0.6219984822899594
Ar 4.541076031383356 0.38784487347112645 2.615884067986878
Ar 0.766607890440175 2.3740784485979836 1.9495304031798966
Ar 2.643529119947765 1.1297926253980382 2.6420510423181995
Ar 2.4989959254685963 3.018920624046645 1.786781077029961
Ar 3.1002515677374745 2.285758474323251 2.6679393246666567
Ar 4.824630188624843 0.4324746032417513 1.5427275248267263
Ar 0.3200875590390503 3.2422810891577036 1.1920288021790126
Ar 2.851261927397345 2.8708557428198618 4.420505337848726
Ar 1.4843734501046093 4.299570709403989 4.615706069224509
Ar 1.238146277153189 2.3079011837291192 3.948418891713469
Ar 0.48947920264402267 1.4715214363237175 3.9915220430783775
Ar 4.049804748719856 3.8151667968101197 1.2246958704126467
Ar 4.670339031108581 2.778076612380479 4.276699642387183
Ar 4.485543944253013 4.8348973262313315 3.635502599361856
Ar 4.1186863463217245 2.5681181927617693 2.5712446443621184
Ar 1.7033292916337746 1.3306220574219019 4.261341674024017
Ar 4.05100649082611 0.6838666144210626 4.07352677407085
Ar 2.156807409053643 0.7715749602386607 3.5066342677964104
Ar 3.4977935839393353 0.3677326440903391 3.1251105583290064
Ar 0.9261568274720257 2.6520669522168157 2.9633186946066377
Ar 3.9710940006337836 4.864572126139597 1.1032682496883346
Ar 4.59781920483921 1.218073529510308 0.5609732821303388
Ar 2.6272407640398288 2.048855551340641 1.2712703862035546
Ar 0.9757697939340997 2.452789740586486 0.3480702169457166
Ar 3.8334031353538824 2.4723106776551127 3.7156891313167675
Ar 4.947614165329518 4.2399759444314595 0.89960364494687
Ar 3.423699800784629 1.5761875374649845 1.9405499549763228
Ar 3.620881355298388 4.592579373322631 2.097306135662557
Ar 4.8633628934883575 2.5970166523793656 3.2636843215561893
Ar 4.151345495486853 3.329793887709822 3.279456498590231
Ar 0.002753300097282363 4.542458799716827 1.9326388655090116
Ar 2.9084966857521852 0.6692273521583841 4.258576842760373
Ar 1.8699683763823882 2.4182755379878267 2.3997147275060158
Ar 0.8781044089090553 4.10644252232078 1.3651330695010895
Ar 0.27970552135156584 1.9552227882227733 0.945033734842662
Ar 3.6524162440728256 3.5842657564749114 4.179215038386217
Ar 1.3050343211392286 3.3679730224043025 0.6577601532807454
Ar 0.8401745509674257 4.610418726788595 0.40910317557834514
Ar 1.0444454290255594 3.7216246038521477 3.613907736306685
Ar 3.4808803431606403 2.614391167186106 1.7219485031080928
Ar 3.8134732605962616 1.9129345590621964 0.9992641339521543
Ar 3.224864809694402 2.2504543077488 0.3334744960636522
Ar 3.477417525332792 0.5648388516595357 2.051342975336964
Ar 0.11291706802528906 3.304137389544851 2.211291651804189
Ar 4.932761685287246 0.7281565143496112 4.660405333384303
